Cu3 H1
1.0
   2.5023254168897169   -0.0000000000000000    0.5027111479640873
   1.2008854192991250    2.1955873314115988    0.5016188494856700
  -0.0046562499005322    0.0004749195628783    6.5023959800009017
Cu H
3 1
direct
   0.4779413594265585    0.8491436828702817    0.0920245130768563 Cu
   0.6917689184181856    0.0629712418619074    0.4505418361019767 Cu
   0.2515836028762320    0.6227859263199540    0.7710977827278375 Cu
   0.0845637283363873    0.4557660517801096    0.2721574063473713 H
