Li3 H1
1.0
   2.6400092482299686    0.0025623521505028   -0.0004743339864137
  -1.3245605789660251    2.2798918724719930   -0.0048453482877140
   0.0046570612192573    0.0008350107043439    6.5295919513908105
Li H
3 1
direct
   0.2452326850079454    0.3065305714466556    0.4416904564090852 Li
   0.5788462737413695    0.9731417291632681    0.1019281745379798 Li
   0.9124598624747942    0.6397528868798819    0.7621658926668742 Li
   0.5788462737413695    0.9731417291632684    0.6019281745379801 H
