Li6 Cu1 H1
1.0
   4.4001187995211168    0.0001051573157376   -0.7264555318287015
  -0.8615222090680907    4.3083801934643011   -0.7469689026015675
   0.0011810999528759    0.0056623037615714    4.4649825379253487
Li Cu H
6 1 1
direct
   0.3042136453337164    0.4672471296332799    0.5000909461255422 Li
   0.1442810333789953    0.1919923398598685    0.9261785758500334 Li
   0.6032891482284876    0.0531589626220037    0.6143363639205541 Li
   0.4433659858098942    0.7779020506078679    0.0404348120111934 Li
   0.7181269877649590    0.3520906590125853    0.2006570248536617 Li
   0.0294476179057574    0.8930668109379617    0.3398593253841103 Li
   0.8737839508732481    0.6225814938774007    0.7702587928438821 Cu
   0.3737889883600289    0.1225851293856007    0.2702597560062701 H
