Li1 Cu1
1.0
   2.5042167171376244   -0.0011882680807709   -0.0000000000000000
  -1.2502146710318824    2.1698078381988597    0.0000000000000000
  -0.0000000000000000   -0.0000000000000000    4.0938402787536363
Li Cu
1 1
direct
   0.9486989800645421    0.3070113198652466    0.3215525737145553 Li
   0.2810092546299166    0.9747010452998724    0.8215525737145554 Cu
