Li2 Cu2 H4
1.0
   2.6520146070806088    0.0012380050397242    0.0011617164742250
  -1.3276941968100311    4.5459854284116137   -0.7176436859915718
  -0.0019796315664550   -0.4015367681528750    4.5667233423419349
Li Cu H
2 2 4
direct
   0.0383849969140781    0.5343889259782186    0.4784065625365642 Li
   0.8324807646154345    0.1225852428253626    0.8527880652880556 Li
   0.5796195737795458    0.6168561952563344    0.9935163124599614 Cu
   0.2909048554534265    1.0394341566667871    0.3362144808064675 Cu
   0.4362161263236998    0.3300096454171341    0.1674270294738457 H
   0.1725835656927075    0.8028198314471349    0.8938483413542059 H
   0.4354545613043180    0.3285465562201403    0.6664422506997403 H
   0.6992715448850582    0.8561338377729154    0.4395617782316287 H
