Li2 Cu11 H2
1.0
   4.1230256002359598    0.0310574977956903    1.3647273677289160
   2.3442230454072086    5.3973091324469102    1.8865189044849753
   0.0344333513609912   -0.0116999863844786    6.6408106491883929
Li Cu H
2 11 2
direct
   0.0380609491750634    0.7262145640017059    0.6024035857929512 Li
   0.8134864019056577    0.1971656786155354    0.4417573839963388 Li
   0.9618881297596720    0.8878156498561018    0.2121778947957257 Cu
   0.1118635257609903    0.5716416706810067    0.9895957247830013 Cu
   0.2567372905557763    0.2669388343614711    0.7573233692492957 Cu
   0.4973910812628334    0.8021048929970616    0.9097315699983780 Cu
   0.6458874525541887    0.4990396750796823    0.6805880995616268 Cu
   0.5750434463065889    0.6594808450496306    0.2912923160410478 Cu
   0.4311593730348673    0.9605869182792667    0.5176164964667958 Cu
   0.8863971508340248    0.0328000192446542    0.8315313586391707 Cu
   0.1908850986055491    0.4275496725797885    0.3665920417359529 Cu
   0.7295087507454893    0.3459682225260724    0.0610129151629963 Cu
   0.3448954579560403    0.1154427380931272    0.1402603875551427 Cu
   0.4227215096669001    0.4582549268499790    0.5250626323262803 H
   0.6482896925438978    1.0022518485675904    0.6783457734840728 H
