Li1 Cu4 H1
1.0
   2.5401552923784578    0.0012885068423150   -0.4001195534995977
  -0.0639072200524755    2.5394058425091477   -0.3997750129716537
   0.0773534466172868    0.0781771973981289    8.7371740890012823
Li Cu H
1 4 1
direct
   0.3363918784839542    0.4505895182891561    0.1440862733330113 Li
   0.9386543013790994    0.0528519411843011    0.3481940598955179 Cu
   0.7340933829177501    0.8482910227229521    0.9399472957673300 Cu
   0.5372113203748712    0.6514089601800723    0.5455719769795492 Cu
   0.1355338644006231    0.2497315042058252    0.7425850299417850 Cu
   0.8363760941315936    0.9505737339367939    0.1440494944698661 H
