Li3 Cu5 H1
1.0
   3.5894416635605024    0.0010430749755264    0.0000000000000000
  -0.0014469937384052    4.9794115796147107    0.1169686961483715
   0.0000024568302483   -0.0084544726511645    4.9807782495064732
Li Cu H
3 5 1
direct
   0.8218579891775527    0.4000177160489437    0.3387444988338393 Li
   0.8218579891775527    0.9082941033716387    0.8470208861565341 Li
   0.3218579891775524    0.6541559097102916    0.5928826924951863 Li
   0.3218579891775525    0.6541559097102911    0.0928826924951866 Cu
   0.8218579891775525    0.9032797370191957    0.3437588651862817 Cu
   0.3218579891775523    0.1541559097102913    0.5928826924951868 Cu
   0.3218579891775526    0.1541559097102911    0.0928826924951868 Cu
   0.8218579891775527    0.4050320824013867    0.8420065198040918 Cu
   0.8218579891775524    0.6541559097102913    0.5928826924951863 H
