Li1 H1
1.0
   2.3081951724417151   -0.0061378604525753   -1.3273819187847222
  -1.5340131885956778    2.1763431887852844   -0.0089021106038419
  -0.0034462323977307    0.0061378604525752    2.6626482749101701
Li H
1 1
direct
   0.4558388864576233    0.6124290369810717    0.5248461760006636 Li
   0.4558388864576229    0.1124290369810714    0.0248461760006636 H
