Cu4 H1
1.0
   3.6056721317518701   -0.0000000000000000    0.0005066114889988
   0.0000001412756204    3.6056720271447356   -0.0010054915422850
  -0.0005066114693005    0.0010054915522099    3.6056719915542570
Cu H
4 1
direct
   0.2736144969571443    0.9835667616378180    0.6469917898944310 Cu
   0.7736144969571445    0.9835667616378181    0.1469917898944312 Cu
   0.7736144969571445    0.4835667616378184    0.6469917898944308 Cu
   0.2736144969571442    0.4835667616378183    0.1469917898944312 Cu
   0.2736144969571442    0.4835667616378184    0.6469917898944310 H
