Cu4 H1
1.0
   3.6867317026990003    0.0000000000000000    0.0021050090197335
   0.0000001213528905    3.6867322975198777   -0.0002125385423521
  -0.0021050090162355    0.0002125385769965    3.6867316965726205
Cu H
4 1
direct
   0.8386724593886925    0.7274323101882821    0.8204190136196267 Cu
   0.8386724593886925    0.2274323101882823    0.3204190136196268 Cu
   0.3386724593886925    0.7274323101882821    0.3204190136196267 Cu
   0.3386724593886927    0.2274323101882822    0.8204190136196267 Cu
   0.8386724593886923    0.7274323101882821    0.3204190136196267 H
