Li2 Cu11 H2
1.0
   4.2272936023423480    0.0115226354757649    1.3797107361019008
   2.3691062851016822    5.5485962011682739    1.9306861281173104
   0.0087658992137295   -0.0001005143355166    6.7942863965237521
Li Cu H
2 11 2
direct
   0.0370170637940300    0.7255330035013821    0.6036330361987033 Li
   0.8152291547599501    0.1993240457402820    0.4412606123519690 Li
   0.9644233288258828    0.8882152305829646    0.2075613193806752 Cu
   0.1115899024340617    0.5685201014196771    0.9928608227996311 Cu
   0.2544040962700703    0.2639016468467881    0.7570859471118399 Cu
   0.4935318507642964    0.8016748232825482    0.9103441914260196 Cu
   0.6418347239741378    0.4980522806448412    0.6820432203444751 Cu
   0.5768442272626157    0.6628375331144085    0.2903261611921608 Cu
   0.4374473544817125    0.9605355033942847    0.5158934697254944 Cu
   0.8832942002074979    0.0322944397349795    0.8331888196275394 Cu
   0.1961804465588975    0.4302518573082251    0.3645952504504182 Cu
   0.7310161792711625    0.3477222913475643    0.0571652908063655 Cu
   0.3482209754354044    0.1152978095493364    0.1396236779028501 Cu
   0.4215215215779110    0.4562627173061445    0.5277070292076600 H
   0.6416603003491996    1.0028328695554360    0.6820026882437804 H
