Li1 H1
1.0
   2.4628341389557260   -0.0011322826012569   -1.4119104239505278
  -1.6355030821304495    2.3203263549014692   -0.0161120582577933
   0.0001402211693131    0.0011322826012570    2.8388453676810177
Li H
1 1
direct
   0.4558388864576230    0.6124290369810715    0.5248461760006637 Li
   0.4558388864576230    0.1124290369810714    0.0248461760006637 H
