Li1 Cu1
1.0
   2.6025970190088401   -0.0000000000000000    0.0020702098762592
  -1.3012987297341048    2.2539158303245426   -0.0007582397142491
  -0.0034163478015229   -0.0005275767150064    4.2949155571642530
Li Cu
1 1
direct
   0.5071817024379095    0.2315742523592625    0.9046226142379639 Li
   0.1738483691045764    0.5649075856925960    0.4046226142379638 Cu
