Li1 Cu4 H1
1.0
   2.6633821692517334    0.0004154719040048   -0.4213867923347034
  -0.0679429452093388    2.6625726164666772   -0.4210254138376701
   0.0044952999041532    0.0034284656887517    8.7194205602046946
Li Cu H
1 4 1
direct
   0.3363902340006228    0.4505878738058253    0.1441551362700421 Li
   0.9417902735482201    0.0559879133534220    0.3554749470058573 Cu
   0.7309847823755633    0.8451824221807652    0.9326747665953673 Cu
   0.5382487969754729    0.6524464367806748    0.5480196405287178 Cu
   0.1346294251659845    0.2488270649711866    0.7402767957158551 Cu
   0.8362173373672782    0.9504149771724804    0.1438328370687631 H
