Li6 H2
1.0
   2.5959420120632384    0.0155184351485361   -0.5250929481522154
  -0.1354797921959195    2.6005191898904223   -0.5938206126773192
  -0.1748268612100395   -0.0295908692081975    5.8621015637417289
Li H
6 2
direct
   0.1342834372184024    0.2097813602281643    0.4132604933614027 Li
   0.9700768611516449    0.5466502722341204    0.0832030872741660 Li
   0.4698075483162855    0.0466510798563193    0.0832041608677743 Li
   0.6342847862586517    0.7097840622123396    0.4132602338084091 Li
   0.7990668671456129    0.3730520795587032    0.7433084108709075 Li
   0.2988118867524733    0.8730510899838537    0.7433082771675924 Li
   0.8845182690735504    0.9598539705233726    0.9132591725881961 H
   0.3843466148626574    0.4598510133448743    0.9132582270561904 H
