Li1 Cu7 H2
1.0
   2.3294135923743320    0.0013356245418899   -0.0011337204986095
  -0.0047855083354616    5.8121656556442369   -3.0051310432261080
   0.0030134163085614   -0.7819623006425391    5.6110708419390702
Li Cu H
1 7 2
direct
   0.6215424589150267    0.4117667942139114    0.4633298201087764 Li
   0.6215598770634504    0.6623431552071639    0.9645022894045729 Cu
   0.1215481952371559    1.0381537866009753    0.2175361702354327 Cu
   0.1215406532192027    0.2839188993350047    0.7090828647381954 Cu
   0.1215424831762896    0.7853474218156405    0.7091088675834143 Cu
   0.6215283157846713    0.1611629210708389   -0.0378659308580157 Cu
   0.6215460759203207    0.9117469429248397    0.4633098656038439 Cu
   0.1215500304173629    0.5395644816474006    0.2175401416546011 Cu
   0.1215193398056764    0.2968660215941630    0.2335422303567208 H
   0.1215644551227090    0.5266488887246027    0.6931248730008261 H
