Li2 Cu4 H6
1.0
   3.3462798992341729   -0.0019341134306475    0.0027087281884082
  -1.6697022359440723    3.5553988642040419   -1.2054764773712172
  -0.0035886414520050   -0.0048146289760844    4.8328906322238723
Li Cu H
2 4 6
direct
   0.9598366005172542    0.5024876586318328    0.1117467135306035 Li
   0.9598366005172544    0.5024876586318325    0.6117467135306037 Li
   0.2924816743927919    0.1678043524261471    0.7780857539795645 Cu
   0.6271915266417162    0.8371709648375181    0.9454076730816426 Cu
   0.2924816743927915    0.1678043524261469    0.2780857539795640 Cu
   0.6271915266417162    0.8371709648375179    0.4454076730816429 Cu
   0.4598366005172539    0.5024876586318324    0.6117467135306035 H
   0.1076647888674264    0.7981239790339164    0.4356489174483316 H
   0.1076647888674266    0.7981239790339164    0.9356489174483320 H
   0.4598366005172538    0.5024876586318324    0.1117467135306034 H
   0.8120084121670820    0.2068513382297489    0.2878445096128754 H
   0.8120084121670818    0.2068513382297490    0.7878445096128751 H
