Li1 Cu2 H2
1.0
   2.3141882850947990    0.0008380089696123    0.4684810231669040
   1.1088124389870657    2.0312998866119902    0.4682930022904671
   0.0454580269687743    0.0275159062904443    5.7227210724877526
Li Cu H
1 2 2
direct
   0.5202816353682023    0.2831695910533029    0.8590582381851101 Li
   0.7427696474646973    0.5056576031497977    0.1888343599566094 Cu
   0.2956964539676938    0.0589452998760190    0.5292813345587574 Cu
   0.9034511685933535    0.6659782340552294    0.7076072128016909 H
   0.1357368435860143    0.8985346255361291    0.0105084817136764 H
