Cu2 H1
1.0
   2.3792137273627705    0.0000000000000001   -0.0009803099883447
  -1.1896063704331006    2.0604593560724456    0.0016872692770985
   0.0016184981772268   -0.0022822009293455    3.9280973638469394
Cu H
2 1
direct
   0.9852285569165553    0.2818626542062763    0.6056474382446355 Cu
   0.3185618902498891    0.9485293208729429    0.0816711247737512 Cu
   0.6518952235832225    0.6151959875396100    0.3436592815091935 H
