Li2 Cu1 H3
1.0
   2.2341863600653258    0.0002234527011527   -0.6742588147087581
  -0.4040096734139982    2.9565621900766881   -1.3377808501427300
  -0.0252233863984018   -0.0222793634399170    3.9547826317606081
Li Cu H
2 1 3
direct
   0.7271105170743746    0.7474650846469283    0.2465077437581702 Li
   0.0560301063586818    0.0762938436563396    0.9042141214605990 Li
   0.3915724044497798    0.4118589250319949    0.5753568478654385 Cu
   0.0720428250849487    0.5924165084665236    0.9364558335308326 H
   0.3915727383130933    0.9118770009269208    0.5753599812743372 H
   0.7111035983911828    0.2313594326928944    0.2142646157827940 H
