Li6 Cu2 H1
1.0
   3.6993195677661479   -0.0002577803297933   -2.1187224902545490
  -1.2205283433861835    3.4941665807839706   -2.1154339484706433
   0.0022098819833931   -0.0009209583364305    4.2847266150773535
Li Cu H
6 2 1
direct
   0.8502206629446718    0.2430352156385999    0.1295210260163466 Li
   0.3454480957350045    0.7478077828482670    0.1295210260163463 Li
   0.8507651106892157    0.7483522305928099    0.1295210260163468 Li
   0.3484043648171675    0.2459914847207628    0.6306579460143291 Li
   0.3448962948898937    0.2424834147934888    0.1295210260163467 Li
   0.8472674448191858    0.7448545647227813    0.6283841060183649 Li
   0.3478366457740891    0.7454237656776849    0.6295210260163470 Cu
   0.8478366457740887    0.2454237656776843    0.6295210260163464 Cu
   0.5978316975474615    0.4954188174510570    0.1295210260163468 H
