Li4 Cu1 H5
1.0
   2.9370848286556202    0.0030597791962589    1.3411302269296856
   1.4660908028752810    3.5916823499366117    0.6635747899787742
  -0.0248606915258212    0.0058657958773455    3.9339354564198246
Li Cu H
4 1 5
direct
   0.0443641031045404    0.2112754681213677    0.7107005765450010 Li
   0.8470297414063346    0.8148884921517722    0.5018613373153790 Li
   0.2531183177358216    0.6060022887786300    0.8982860947335990 Li
   0.4504559359058425    0.0023955834215993    0.1071358769118775 Li
   0.6484749468998543    0.4086451175218296    0.3044995819571343 Cu
   0.7499421946266382    0.6196291293747963    0.8908181765511896 H
   0.5472790463617010    0.1976533488526230    0.7181708734527013 H
   0.1490580529796349    0.4086481926559339    0.3045103810182562 H
   0.9608808210967383   -0.0050340236514058    0.0934853976531185 H
   0.3363576864246376    0.8223118303691710    0.5155085611174156 H
