Li9 Cu1 H1
1.0
   2.9729465683144483   -0.0007789884378563   -0.7726443000160910
  -0.1440585187682494    3.9187450670639619   -0.5584290047639543
  -0.1092734930667600    0.3471119035679555    5.6856184871422846
Li Cu H
9 1 1
direct
   0.7517759648970469    0.4367730830337381    0.3753483723759576 Li
   0.5523897540396845    0.0564231015063579    0.9765229752267087 Li
   0.3570677035769900    0.7211081126737200    0.5858977533191293 Li
   0.9489444151443552    0.9653073216967003    0.7696473323573606 Li
   0.7514342620855929    0.9334975334921300    0.3746497582959522 Li
   0.9548552411369754    0.4858836964769667    0.7814984445270452 Li
   0.5506852212289267    0.5366151721704306    0.9731563413236357 Li
   0.1648376032049882    0.4801700894608810    0.2014824183019833 Li
   0.1539387592191784   -0.0339330124510018    0.1796249879152986 Li
   0.3522051526514162    0.2189605166424458    0.5761884590668102 Cu
   0.0550586495197662    0.2406043090052947    0.9818411718332098 H
