Li1 Cu4 H1
1.0
   2.2572364543706707    0.0010883913355791   -0.3555859293045762
  -0.0568459150022558    2.2565690296953189   -0.3552797557171745
   0.1548859450011814    0.1577827281289415    8.3055702161328639
Li Cu H
1 4 1
direct
   0.3363899773234827    0.4505876171286846    0.1440953545270497 Li
   0.9337518136347077    0.0479494534399109    0.3382324715158535 Cu
   0.7389837732140367    0.8531814130192387    0.9498954852556623 Cu
   0.5355225747806840    0.6497202145858862    0.5421407412775906 Cu
   0.1372376312510324    0.2514352710562348    0.7460268503453131 Cu
   0.8363750985231122    0.9505727383283149    0.1440432367300164 H
