Li2 Cu2 H2
1.0
   2.2682681874956461   -0.0032313866688353   -0.1870088905735528
   0.0031528971842295    2.2785373677561047    0.0017336003139200
   0.5257551288364321   -0.0059229338796486    6.3315817297504413
Li Cu H
2 2 2
direct
   0.2260558375499644    0.6819029376696814    0.9351999865456498 Li
   0.7263554721000659    0.1817892872891313    0.1892399533173928 Li
   0.2261327676948272    0.6818206374243294    0.4312418481302758 Cu
   0.7262785419552031    0.1818715875344834    0.6931980917327670 Cu
   0.7254768226901803    0.1819123116416637    0.9448970411082844 H
   0.2269344869598498    0.6817799133171498    0.1795428987547581 H
