Li2 Cu6 H8
1.0
   3.4010676390459338   -0.0896666454732552    0.0008922222985353
   0.0904125652279349    3.3995791767424524    0.0000237184658835
  -0.0017853818112371   -0.0000000000000000    6.8057078505077522
Li Cu H
2 6 8
direct
   0.3346748327783197    0.3922545885300833    0.4182927905073012 Li
   0.8345838551072551    0.8923701776266032    0.9182927905073018 Li
   0.3346305161005171    0.3919014213307444    0.9182927905073019 Cu
   0.8346758928947521    0.3923393273716700    0.1683273647164097 Cu
   0.8346758928947506    0.3923393273716699    0.6682582162981952 Cu
   0.8346277711682907    0.8927234002340195    0.4182927905073018 Cu
   0.3345823482086212    0.8922855536470273    0.6683274120979712 Cu
   0.3345823482086206    0.8922855536470262    0.1682581689166324 Cu
   0.8345651221484793    0.8924293445956171    0.6826588176772629 H
   0.3346930565915852    0.3921956419215731    0.1826588012934071 H
   0.8347726198451548    0.3929673185583955    0.4182927905073026 H
   0.8345651221484793    0.8924293445956171    0.1539267633373405 H
   0.8346774460520621    0.3927078000921332    0.9182927905073014 H
   0.3346930565915851    0.3921956419215729    0.6539267797211969 H
   0.3344865119318284    0.8916572699275365    0.9182927905073021 H
   0.3345809055609295    0.8919167970128961    0.4182927905073019 H
