Li8 Cu1 H3
1.0
   2.6816300965311632    0.0024949114439379   -0.5197182077428917
  -0.3418890580316688    5.8196252063087135   -1.7361011307712537
  -0.5847235246691913   -0.6505525338394829    4.1579846865479837
Li Cu H
8 1 3
direct
   0.4959802209686836    0.3800656737361340    0.3357715865155940 Li
   0.0476687081641315    0.0287195714653655    0.4392496923699380 Li
   0.8359107602829458    0.3956167634796020    0.0157365172863871 Li
   0.1639684020645854    0.3746862056006890    0.6717601421848144 Li
   0.7197000384093061    0.0496504118774442    0.7832257743516495 Li
   0.7563835931596603    0.7100575306498826    0.8567114776273461 Li
   0.1271636140630886    0.7142784427731662    0.5982740138715329 Li
   0.3877015459877499    0.0442704081811152    0.1192133783454681 Li
   0.4419574419448036    0.7121687383254148    0.2274931020277653 Cu
   0.9418207469218107    0.2121679680328942    0.2274927773541220 H
   0.2739562573281682    0.2091013573170157    0.8917510284099366 H
   0.6096994199238768    0.2152352377404392    0.5632345925064287 H
