Li2 Cu2 H4
1.0
   3.0381378868426179   -0.0043474682198370   -1.3065077137820662
  -0.5618332451515876    2.9825066100589810   -1.3172695200550955
  -0.0449176311403043   -0.0408161649780041    4.0786439989558136
Li Cu H
2 2 4
direct
   0.2812686230625662    0.5642891336398650    0.5849482108555624 Li
   0.0312439635806987    0.8142426201490883    0.0848798301964915 Li
   0.7812735893795966    0.0642117366747806    0.5848800056836776 Cu
   0.5312389972636680    0.3143200171141728    0.0849480353683759 Cu
   0.7934400348399681    0.5764267114273072    0.6092767765383267 H
   0.5190725518032974    0.8021050423616467    0.0605512645137277 H
   0.2690849560754613    0.0520728889886802    0.5605332954566512 H
   0.0434276305678033    0.3264588648002730    0.1092947455954028 H
