Cu4 H1
1.0
   3.3254172038866407    0.0000000000000000    0.0004672345403698
   0.0000001302948137    3.3254171074102126   -0.0009273385795764
  -0.0004672345222025    0.0009273385887299    3.3254170745860456
Cu H
4 1
direct
   0.2736144969571441    0.9835667616378180    0.6469917898944305 Cu
   0.7736144969571442    0.9835667616378180    0.1469917898944312 Cu
   0.7736144969571443    0.4835667616378183    0.6469917898944308 Cu
   0.2736144969571442    0.4835667616378181    0.1469917898944311 Cu
   0.2736144969571441    0.4835667616378183    0.6469917898944308 H
