Li1 Cu1
1.0
   2.4320030197171980   -0.0000000000000000   -0.0001053463034369
   0.0000000034772576    2.4320030206739713    0.0000802752515951
   0.0001051614104138   -0.0000801343608286    2.4277346175450272
Li Cu
1 1
direct
   0.5425601591288813    0.1355231395531411    0.2050071363302794 Li
   0.0425601591288809    0.6355231395531405    0.7050071363302806 Cu
