Cu3 H1
1.0
   2.3078202923574280   -0.0000000000000002    0.4636355370229411
   1.1075408980577135    2.0249248810223355    0.4626281426301941
  -0.0028606926999335    0.0012842406870341    5.9898302640880745
Cu H
3 1
direct
   0.4776646621301009    0.8488669855738231    0.0928546049662299 Cu
   0.6918519575943933    0.0630542810381150    0.4502927185733539 Cu
   0.2515027997343688    0.6227051231780891    0.7713401921534297 Cu
   0.0848381899123050    0.4560405133560274    0.2713340216196182 H
