Li2 Cu11 H2
1.0
   3.7718724231461582    0.0544726521990352    1.2687898449320678
   2.1926221513826305    4.9065749771088241    1.7111731258804703
   0.0630958378421432   -0.0431054451942730    6.0781091447033893
Li Cu H
2 11 2
direct
   0.0393349852477147    0.7259964401641084    0.6008334322981993 Li
   0.8081956965279530    0.1948501365951463    0.4434476894177785 Li
   0.9567808401122073    0.8869461796674143    0.2251302726944678 Cu
   0.1122091977254054    0.5785285066196495    0.9845498852905888 Cu
   0.2608924563798344    0.2720792168619588    0.7563555922766043 Cu
   0.5011173666644509    0.8041954006209822    0.9081431395834854 Cu
   0.6518610552030415    0.5019050257119737    0.6784148628250271 Cu
   0.5729643402058162    0.6547773719707455    0.2932626499476840 Cu
   0.4143480474763878    0.9612048451013617    0.5212955078641242 Cu
   0.8866324317592341    0.0361271957761106    0.8291608061392368 Cu
   0.1841862968383647    0.4220429976179498    0.3707632278258745 Cu
   0.7274563374942542    0.3431164006573569    0.0677493857010289 Cu
   0.3399298564256274    0.1156292976848041    0.1418506119282981 Cu
   0.4206919501145566    0.4623633591272258    0.5228956914452159 H
   0.6776144383794800    0.9934937879483723    0.6614387423171829 H
