Li1 Cu6 H6
1.0
   3.4076328808781504   -0.1209184772435764    0.0053856946018058
  -1.5717894289450587    3.8540668768844943   -0.2837123860356750
  -0.0258489450462296   -0.3826693361855851    5.3589751993922086
Li Cu H
1 6 6
direct
   0.8831907428022444    0.2203905125558563    0.7264254373135398 Li
   0.5968352494591145    0.6478416089550024    0.8639292967988750 Cu
   0.4511603928505521    0.3562054924473303    0.4422951112627622 Cu
   0.1721366789479741    0.7981988327918670    0.5771731133535626 Cu
   0.3092044765132595    1.0725134958738729    1.0106059460220340 Cu
   0.0300357273919060    0.5142630893109473    0.1563952862102350 Cu
   0.7437796042815470    0.9416120884569056    0.2964498373596489 Cu
   0.6801164963761229    0.8142237525223428    0.5828557806798630 H
   0.3816160139244915    0.2170336961956739    0.7266515389758693 H
   0.0876050688350062    0.6292768837689071    0.8578010442252538 H
  -0.0485668226432838    0.3566825219884436    0.4560232621890103 H
   0.5256315653534169    0.5055738034913280    0.1562438764686387 H
   0.8189608319507424    1.0920683593756757    1.0004692635757111 H
