Li1 H1
1.0
   1.9264642445782059   -0.0059291097521440   -1.1085135869727674
  -1.2805078937894321    1.8166892974122852   -0.0064453932827314
  -0.0034445336323343    0.0059291097521441    2.2226234483892151
Li H
1 1
direct
   0.4558388864576228    0.6124290369810712    0.5248461760006637 Li
   0.4558388864576227    0.1124290369810714    0.0248461760006636 H
