Li2 Cu4 H2
1.0
   2.1944542177739641    0.0000000000000002   -0.5949697996526272
  -0.3174963842190570    4.3852856269410330   -1.1710363784586673
   0.2026574628535102    0.1943378536373518    5.0919083860951480
Li Cu H
2 4 2
direct
   0.0056799141106185    0.3037124247248632    0.9732997623708428 Li
   0.0056742191320429    0.8037038373914381    0.9732883724136907 Li
   0.3418046915945014    0.4717667939732228    0.6455493173386077 Cu
   0.6695472797402228    0.1356449854108377    0.3010344936300505 Cu
   0.3418070903107913    0.9717712628981924    0.6455541147711873 Cu
   0.6695490875986819    0.6356506388343288    0.3010381093469693 Cu
   0.5056765936742325    0.5537076257030785    0.9732931214980698 H
   0.5056774516722180    0.0537078614981756    0.9732948374940420 H
