Li1 Cu5 H6
1.0
   4.1385952907000503    0.0132749162127493    0.6812445413155748
   1.8816369758593028    3.4886913933022030    1.3538460297572779
   0.0088169404695743    0.0228856936745950    4.1884517890411503
Li Cu H
1 5 6
direct
   0.6865822075235869    0.5813582172800494    0.5940982555538122 Li
   0.6865822075235856    0.0813582172800492    0.0940982555538121 Cu
   0.3530797972915841    0.7481264572594225    0.0940954630513403 Cu
   0.3534041996906978    0.2479879294611618    0.5940707223929259 Cu
   0.0200846177555884    0.4145899773006764    0.0941010480562836 Cu
   0.0197602153564747    0.9147285050989367    0.5941257887146990 Cu
   0.6865526792824275    0.8164901911649076    0.8303942574115950 H
  -0.0011404088577407    0.6595274859955134    0.3588305036281775 H
   0.6866117357647461    0.3462262433951906    0.3578022536960292 H
  -0.0015695366306527    0.1914766685156465    0.8289959894611690 H
   0.3747339516778258   -0.0287602339555480    0.3592005216464558 H
   0.3743048239049137    0.5031889485645851    0.8293660074794471 H
