Cu3 H1
1.0
   2.5297679804251336   -0.0000000000000000    0.5033344909457349
   1.2148909651964275    2.2190470743635045    0.5029330661258301
   0.0123157763391344    0.0084819735049817    6.5470970595543649
Cu H
3 1
direct
   0.5653812496909055    0.6861883036994195    0.0819768985444149 Cu
   0.0183279177566106    0.1391349717651230    0.7231368943473021 Cu
   0.7918545837237592    0.9126616377322708    0.4025568964458582 Cu
   0.2918545837237590    0.4126616377322708    0.9025568964458582 H
