Li3 Cu7 H2
1.0
   2.5384729561861388    0.0051504977671904   -0.0079330534935386
  -0.0150238260795519    4.0931766706986146   -0.0074685144266597
   0.0172383385892658    0.0151120706780946   11.5760407380652257
Li Cu H
3 7 2
direct
   0.4880756057402311    0.8914491234348214    0.9951132507910286 Li
   0.9899516866688951    0.3915173796987987    0.4548837270546460 Li
   0.4901995862459074    0.8914469285290741    0.5975513069893812 Li
   0.4896367651803366    0.3914076082070124    0.2469747663804017 Cu
   0.9915192783737122    0.3914534552986440    0.6814357788867885 Cu
   0.9884123349346986    0.8915117009973013    0.8027102230923827 Cu
   0.4898660083730815    0.3915192459025489    0.8700347634480707 Cu
   0.9889805000567559    0.3914011671600574    0.0586141036212516 Cu
   0.9886507843868260    0.8914139061359780    0.1866142413730482 Cu
   0.4889725394686256    0.8914655628837161    0.3734985591487350 Cu
   0.4908652603360580    0.3915304273430991    0.5763667375339480 H
   0.9895301444347041    0.8913896539869773    0.4777619517548489 H
