Li9 Cu1 H1
1.0
   3.5644751918753133   -0.0010555858427140   -0.9259064395022005
  -0.2624294590117683    5.4337890757340084   -1.0168634331417732
  -0.0165174404383282    0.0262547751463842    7.2577618593131721
Li Cu H
9 1 1
direct
   0.7627174850435927    0.3243524578119747    0.3971615764789433 Li
   0.5461628986541187    0.2250798996260885    0.9640762963983697 Li
   0.3559405668750478    0.6347506801211440    0.5836482535917454 Li
   0.9520738002188504    0.9533091000066366    0.7759761077787998 Li
   0.7598340985883273    0.8480184083697687    0.3913505151824990 Li
   0.9521531397242570    0.4078504314517258    0.7761199544741662 Li
   0.5537052460287492    0.7307465230162350    0.9793252884960357 Li
   0.1513070697872538    0.5137947804975976    0.1743669942908993 Li
   0.1544279463375922    0.0425058246983692    0.1806002972541248 Li
   0.3506051245863361    0.1322765222050557    0.5729710698848333 Cu
   0.0542653750102676    0.2287259323906177    0.9802615590260795 H
