Li3 H1
1.0
   2.7237146207972964    0.0023815903023255   -0.0008792280967461
  -1.3667830418611022    2.3529708825646676   -0.0048380954882539
   0.0039634220773252    0.0012431659019198    6.9116796835356515
Li H
3 1
direct
   0.2451521062063176    0.3064902820458417    0.4467100955389445 Li
   0.5788462737413692    0.9731417291632681    0.1019281745379798 Li
   0.9125404412764206    0.6397931762806959    0.7571462535370146 Li
   0.5788462737413692    0.9731417291632681    0.6019281745379796 H
