Li1 Cu4 H1
1.0
   2.5881609457692947    0.0012641379604955   -0.4077049944790671
  -0.0651636911387376    2.5873960859994294   -0.4073539361358655
   0.0526066671063854    0.0527872426826318    8.7386931772509460
Li Cu H
1 4 1
direct
   0.3363847131424035    0.4505823529476051    0.1440765423547901 Li
   0.9399344833473391    0.0541321231525421    0.3509106983453557 Cu
   0.7328088908436652    0.8470065306488687    0.9372196138432670 Cu
   0.5376036594382740    0.6518012992434760    0.5464216320290933 Cu
   0.1351426857266273    0.2493403255318294    0.7417290112815454 Cu
   0.8363864218848187    0.9505840616900211    0.1440766270431222 H
