Cu4 H1
1.0
   3.6394380269552697   -0.0000000000000000    0.0020780058033226
   0.0000001197961664    3.6394386141457389   -0.0002098120817047
  -0.0020780057998695    0.0002098121159046    3.6394380209074799
Cu H
4 1
direct
   0.8386724593886918    0.7274323101882825    0.8204190136196265 Cu
   0.8386724593886923    0.2274323101882824    0.3204190136196269 Cu
   0.3386724593886924    0.7274323101882821    0.3204190136196267 Cu
   0.3386724593886927    0.2274323101882823    0.8204190136196265 Cu
   0.8386724593886921    0.7274323101882821    0.3204190136196268 H
