Li1 Cu1
1.0
   2.5416973574883004   -0.0012207017494298   -0.0000000000000000
  -1.2689393444958581    2.2022760696983910    0.0000000000000000
  -0.0000000000000000   -0.0000000000000000    4.1804210488460392
Li Cu
1 1
direct
   0.9486989800645427    0.3070113198652469    0.3215525737145555 Li
   0.2810092546299171    0.9747010452998736    0.8215525737145555 Cu
