Li1 H1
1.0
   2.3642737291865688   -0.0037673806071856   -1.3575844402686104
  -1.5706862293894206    2.2283707122451801   -0.0121946608067085
  -0.0017543381988081    0.0037673806071856    2.7263203592532341
Li H
1 1
direct
   0.4558388864576230    0.6124290369810714    0.5248461760006637 Li
   0.4558388864576231    0.1124290369810714    0.0248461760006638 H
