Li6 Cu2 H1
1.0
   4.5340940143852855    0.0003349580802174   -2.6015696497513088
  -1.5165725737300739    4.2766648622753838   -2.5954418834520951
   0.0019635230464640   -0.0047323436649992    5.2413366397344054
Li Cu H
6 2 1
direct
   0.5236404387968848    0.6863705080952629    0.7191746240381862 Li
   0.5240628077075657    0.1947574555003683    0.2288040327617811 Li
   0.0144182166932396    0.6851128644860423    0.2095438470642075 Li
   0.5228872444333342    0.1935818922261369    0.7191746240381868 Li
   0.0164290546660116    0.6871237024588139    0.7191746240381861 Li
   0.0156758603024606    0.1943350865896878    0.7191746240381865 Li
   0.0192405122004026    0.1899351599932054    0.2191739399129942 Cu
   0.5192405122004025    0.6899351599932052    0.2191739399129941 Cu
   0.7696581495496726    0.4403527973424756    0.7191746240381864 H
