Li2 Cu11 H2
1.0
   4.1701966442856619    0.0265654711356227    1.3760415679601909
   2.3621820490524619    5.4616218800291501    1.9097923042930534
   0.0280186969580255   -0.0068276478148978    6.7165824584489817
Li Cu H
2 11 2
direct
   0.0378089663962676    0.7256393060124910    0.6030309799401917 Li
   0.8135967436041031    0.1979925663609541    0.4419124059947516 Li
   0.9624021449596007    0.8878572329563948    0.2104473764993001 Cu
   0.1118961242172927    0.5703758387427632    0.9908206112432195 Cu
   0.2560360296021689    0.2656876566381099    0.7571768000517645 Cu
   0.4959529123229884    0.8021312986146570    0.9100968537702179 Cu
   0.6447322347951769    0.4986132916334185    0.6812653765864723 Cu
   0.5758374746386056    0.6606804735911529    0.2907926352490077 Cu
   0.4335434573167563    0.9602339265991590    0.5170379547594411 Cu
   0.8857112592252162    0.0325171812748483    0.8324563440894109 Cu
   0.1926111209318437    0.4286115054871634    0.3656159837371671 Cu
   0.7301356659483428    0.3465965571169959    0.0593119350693566 Cu
   0.3457117550201281    0.1154375234803324    0.1402175481720710 Cu
   0.4227254008929004    0.4577102674824465    0.5257237437371701 H
   0.6455140291075190    1.0031715322703589    0.6793849911223611 H
