Li3 H1
1.0
   2.3770457030613765    0.0017991339032321   -0.0001030322518999
  -1.1930671820813032    2.0522269243297786   -0.0048997038097573
   0.0051000277918605   -0.0004489488429127    5.8644702740013326
Li H
3 1
direct
   0.2452561863676191    0.3065423221264926    0.4319588409142958 Li
   0.5788462737413698    0.9731417291632687    0.1019281745379797 Li
   0.9124363611151196    0.6397411362000449    0.7718975081616629 Li
   0.5788462737413698    0.9731417291632688    0.6019281745379794 H
