Li1 Cu5 H4
1.0
   2.4549300116196595    0.0000000000000000   -0.5038893524022979
  -0.1039576956129072    4.2798448804909297   -0.5064779910157590
   0.0028275011641020   -0.0000195976554831    6.2458835916433451
Li Cu H
1 5 4
direct
   0.0444336572273787    0.6706521123366236    0.3148447367575796 Li
   0.3744332244289328    0.7784560042502283    0.9748438711606882 Cu
   0.7144149027992871    0.5628450565398415    0.6548072279013967 Cu
   0.8747232216503432    0.2831131255098004    0.9754238656035086 Cu
   0.2141372976936867    0.0582142442396958    0.6542520176901961 Cu
   0.5444242352578450    0.1706358170766190    0.3148258928185123 Cu
   0.6281529653130959    0.8553121648112916    0.4822833529290134 H
   0.4607091644162612    0.4859833938340697    0.1473957511353444 H
   0.9580207962846458    0.9655509782574586    0.1420190148721141 H
   0.1308323526166102    0.3757495154590990    0.4876421275360426 H
