Li3 Cu5 H1
1.0
   3.3956087238673383    0.0009867480289488    0.0000000000000000
  -0.0013709314928581    4.7176653009706433    0.1086117289330542
   0.0000029692397793   -0.0102177822525949    4.7189045207563209
Li Cu H
3 5 1
direct
   0.8218579891775537    0.4016250634688555    0.3403518462537513 Li
   0.8218579891775530    0.9066867559517262    0.8454135387366237 Li
   0.3218579891775527    0.6541559097102914    0.5928826924951874 Li
   0.3218579891775527    0.6541559097102915    0.0928826924951867 Cu
   0.8218579891775529    0.9029408199133465    0.3440977822921311 Cu
   0.3218579891775530    0.1541559097102912    0.5928826924951873 Cu
   0.3218579891775525    0.1541559097102910    0.0928826924951868 Cu
   0.8218579891775536    0.4053709995072350    0.8416676026982440 Cu
   0.8218579891775531    0.6541559097102911    0.5928826924951874 H
