Li1 Cu7 H2
1.0
   2.4558927210797679    0.0013613378761149   -0.0012975113759981
  -0.0050036364119008    6.0343872454009784   -3.1191460958378068
   0.0028443012461840   -0.7814496208865458    5.8847445539211618
Li Cu H
1 7 2
direct
   0.6215438054053316    0.4117492596465564    0.4633216825043762 Li
   0.6215572977947276    0.6618503441678365    0.9635889009860733 Cu
   0.1215589757610380    1.0348349543654178    0.2162539115157444 Cu
   0.1215296621020264    0.2818767217047414    0.7103328781809364 Cu
   0.1215291578900826    0.7886861944095376    0.7103775718741105 Cu
   0.6215312478575551    0.1616315614431236   -0.0369483124092433 Cu
   0.6215438854966320    0.9117298962142941    0.4633247036773951 Cu
   0.1215586897222481    0.5416576657055338    0.2163166880374959 Cu
   0.1215315804932676    0.2909506844305136    0.2217381195939516 H
   0.1215577523191173    0.5325521831656731    0.7049052635196632 H
