Li3 Cu1 H4
1.0
   3.4857913489327212    0.0029288689524682   -0.0010593898607460
  -0.0029265756177751    3.4823469324497691   -0.0019767588312248
   0.0010606637896947    0.0010268327725684    3.4928219137993763
Li Cu H
3 1 4
direct
   0.5967359757096743    0.0883188681335462    0.0221663201215322 Li
   0.5967359757096736    0.5884281660165631    0.5222943257877212 Li
   0.0967359757096736    0.5885976504318168    0.0219891079441047 Li
   0.0967359757096737    0.0882840418617463    0.5223352666971414 Cu
   0.0967359757096737    0.5880347534291452    0.5219453121626028 H
   0.0967359757096737    0.0884782804373982    0.0224487974543915 H
   0.5967359757096744    0.5886432371694604    0.0219408620022657 H
   0.5967359757096743    0.0886108320733880    0.5218033404029903 H
