Li6 Cu1 H1
1.0
   4.0011236825547849   -0.0035910412183864   -0.6627213380001694
  -0.7872967458176141    3.9151540291964952   -0.6831530139134984
  -0.0010563352261846    0.0006998141611451    4.0603937603571092
Li Cu H
6 1 1
direct
   0.3041182283658088    0.4793504089263855    0.4903365954320905 Li
   0.1542225586119859    0.1923573883222451    0.9144327482446870 Li
   0.5933551416045462    0.0528109565993648    0.6260889847052468 Li
   0.4434598026320541    0.7658023321102648    0.0501651546194083 Li
   0.7302006845093163    0.3421722888220218    0.2000976945247036 Li
   0.0173693471860271    0.9029796458404115    0.3404303702849083 Li
   0.8737849744958451    0.6225813307929754    0.7702628895355431 Cu
   0.3737866014039710    0.1225702117079867    0.2702611716773222 H
