Li1 Cu4 H1
1.0
   2.3970223413746217    0.0011909659542795   -0.3775989256486337
  -0.0603311001592549    2.3963144854719745   -0.3772737960297981
   0.1247348417293592    0.1268123789322002    8.5697552449928107
Li Cu H
1 4 1
direct
   0.3363900562899867    0.4505876960951891    0.1440788739744648 Li
   0.9360856334411772    0.0502832732463794    0.3429290954593510 Cu
   0.7366564261656234    0.8508540659708245    0.9452113991855178 Cu
   0.5363752673936216    0.6505729071988239    0.5438449283124227 Cu
   0.1363623924925083    0.2505600322977105    0.7443062518764767 Cu
   0.8363910911731155    0.9505887309783180    0.1440635748093313 H
