Li1 Cu2 H2
1.0
   2.4809806807116104    0.0032025993491806   -0.0000696787972410
  -1.2436691156672963    2.1472239469174310    0.0011465638500929
   0.0013312105407533   -0.0023841736680188    5.9089079330527028
Li Cu H
1 2 2
direct
   0.4340606635556351    0.8403555762135816    0.3342886271390502 Li
   0.7675443342170847    0.5070974115443072    1.0011574392636362 Cu
   0.1005769928941856    0.1736137408828568    0.6674198150144636 Cu
   0.7672537580659309    0.5069521234687300    0.4959521108517325 H
   0.1008675690453389    0.1737590289584336    0.1726251434263676 H
