Li1 Cu1
1.0
   2.6135758430279643   -0.0000000000000000   -0.0001132114358340
   0.0000000037368689    2.6135758440561627    0.0000862685846442
   0.0001120465617108   -0.0000853809355585    2.5866837994256784
Li Cu
1 1
direct
   0.5425601591288811    0.1355231395531412    0.2050071363302793 Li
   0.0425601591288809    0.6355231395531411    0.7050071363302797 Cu
