Cu2 H1
1.0
   2.4877847430761073    0.0000000000000000   -0.0010250446205992
  -1.2438918557812959    2.1544846059068963    0.0017642646882672
   0.0016947697231526   -0.0023897493933746    4.1132085136174448
Cu H
2 1
direct
   0.9852285569165556    0.2818626542062763    0.6063147423584717 Cu
   0.3185618902498892    0.9485293208729433    0.0810038206599155 Cu
   0.6518952235832222    0.6151959875396094    0.3436592815091938 H
