Cu4 H1
1.0
   3.4762268723650651    0.0000000000000000    0.0019848173154589
   0.0000001144238890    3.4762274332228889   -0.0002004030268318
  -0.0019848173121607    0.0002004030594981    3.4762268665884886
Cu H
4 1
direct
   0.8386724593886924    0.7274323101882820    0.8204190136196271 Cu
   0.8386724593886923    0.2274323101882823    0.3204190136196268 Cu
   0.3386724593886926    0.7274323101882820    0.3204190136196268 Cu
   0.3386724593886927    0.2274323101882822    0.8204190136196268 Cu
   0.8386724593886925    0.7274323101882820    0.3204190136196268 H
