Li6 Cu2 H1
1.0
   3.8124220426572748    0.0016565020301738    0.0084372895526759
  -0.0059690244971596    4.0270015899928682   -2.3087976089595523
  -0.0009437046265788   -0.0009866199775705    4.6419093022374405
Li Cu H
6 2 1
direct
   0.8398712864250379    0.8426444365357247    0.7719485306958490 Li
   0.8407137054611296    0.3383179255413737    0.7726323275938626 Li
   0.3289411549202956    0.0111606139403900    0.1070750673875242 Li
   0.3289411549202955    0.5075178998440514    0.6034323532911852 Li
   0.3297835739563863    0.5068341029460381    0.1077588642855376 Li
   0.8407137054611296    0.8419606396377110    0.2762750416902008 Li
   0.3458626885762483    0.0088796768801728    0.6057132903514032 Cu
   0.8237921718051763    0.3405988626015908    0.2739941046299838 Cu
   0.0848274301907125    0.6747392697408815    0.9398536974906930 H
