Li3 Cu2 H3
1.0
   2.4121549429853455   -0.0011306794308597   -0.3766717673605423
  -0.0579675662604093    2.4113649319308497   -0.3772708497181874
   0.0976855303958179    0.1021392408709569    8.5384635775069100
Li Cu H
3 2 3
direct
   0.2263903426937401    0.4337095116184183    0.9990937023754460 Li
   0.4337012993296968    0.6410204682543745    0.4136064739087383 Li
   0.8300458210117190    0.0373649899363963    0.2063500881420921 Li
   0.0307434956539699    0.2380626645786478    0.6077371206261812 Cu
   0.6293481463694661    0.8366673152941451    0.8049630556580032 Cu
   0.9316237224612123    0.1389428913858904    0.4094321074503786 H
   0.3301387025704476    0.5378291431817247    0.2065004705073627 H
   0.7284679195622242    0.9357870884869026    1.0032680688338058 H
