Cu3 H1
1.0
   2.4111929134188972    0.0000000000000000    0.4844028475618159
   1.1571502224683459    2.1156259607801715    0.4833503296387984
  -0.0036818575300053    0.0009326870174540    6.2615783046594338
Cu H
3 1
direct
   0.4778057559342548    0.8490080793779772    0.0924313235537686 Cu
   0.6917803041753117    0.0629826276190334    0.4505076788305993 Cu
   0.2515218328129515    0.6227241562566727    0.7712830929176808 Cu
   0.0847497152168631    0.4559520386605850    0.2715994457059445 H
