Li2 Cu2 H4
1.0
   3.9685646838235402   -0.6132331729384506   -1.5694047247343723
  -1.5992466670728858    3.6806121758977359   -1.5761014791541161
  -0.2257460502231328   -0.2872485191729962    3.5107607906347673
Li Cu H
2 2 4
direct
   0.5414911187817616    0.2528997262742836    0.3244527947721336 Li
   0.7915718221708092    0.0028190228852355    0.8244527947721332 Li
   0.2918130859206891    0.5029971076862064    0.8248339647766010 Cu
   0.0416692035827325    0.7531409900241648    0.3248339647766018 Cu
   0.5457777799913462    0.2494276362717950    0.8265392031209110 H
   0.7880997321683206    1.0071056840948214    0.3265392031209109 H
   0.2970677267435220    0.5006308971402124    0.3265617940861894 H
   0.0393029930367388    0.7583956308469967    0.8265617940861898 H
