Li2 Cu6 H2
1.0
   2.4205175425113379    0.2434441116847605    0.0031301923375524
  -0.6698283527312329    6.6423833305533755    0.0055365990405872
  -0.0046770090678230   -0.0045687078882146    4.8653896896036413
Li Cu H
2 6 2
direct
   0.1386217680360329    0.8289624823854270    0.7411593099616182 Li
   0.1411884890925274    0.8289212210459529    0.2411231642115207 Li
   0.6398128194424977    0.5795818056690657    0.4910293567857958 Cu
   0.6399974376860635    0.0783018977623131    0.4912531173873421 Cu
   0.6400135690561450    0.0782942581230396    0.9910267535267744 Cu
   1.1398018842851787    0.3287611699858297    0.2411133901231136 Cu
   0.1400083728433824    0.3291225334455494    0.7411690840500255 Cu
   0.6397966880724155    0.5795894453083396   -0.0087442793536365 Cu
   0.6399051285642804    0.8289418517156901    0.4911412370865691 H
   0.6399051285642799    0.8289418517156892    0.9911412370865692 H
