Li2 Cu11 H2
1.0
   3.9577367270327262    0.0448522071124517    1.3245073801107947
   2.2783457677384047    5.1618002501378237    1.8052117441003066
   0.0553522113320801   -0.0285724392182618    6.3773376939476671
Li Cu H
2 11 2
direct
   0.0386995699449007    0.7264729414436464    0.6011234498405010 Li
   0.8098001582504428    0.1955183311039654    0.4425740929228971 Li
   0.9590112167630208    0.8873281866704670    0.2181449590295970 Cu
   0.1124058284128076    0.5752411149251656    0.9867678504474529 Cu
   0.2597567465260534    0.2699433144531591    0.7568395852346774 Cu
   0.5003314204090348    0.8031805176575115    0.9088750934898275 Cu
   0.6494635232056748    0.5005429428892084    0.6791927790880542 Cu
   0.5732790171436244    0.6567328347654299    0.2924856684513102 Cu
   0.4229277301149492    0.9607987296575374    0.5197264472080810 Cu
   0.8875265721235196    0.0346136449457297    0.8297489227934722 Cu
   0.1865897608794740    0.4244283590484430    0.3691883382699940 Cu
   0.7283593994973213    0.3445167401464050    0.0645824029536416 Cu
   0.3418390305395372    0.1155889164363619    0.1412734503645153 Cu
   0.4223397757157515    0.4607543726563206    0.5231614969924643 H
   0.6618856428687785    0.9975951572146063    0.6716070144220151 H
