Li1 H1
1.0
   2.1160361685367230    0.0035195390554322    1.2110357862517043
   0.7032103669674757    1.9943479537319642    1.2133839246205718
   0.0056201536625835    0.0011127865598501    2.4380722517743201
Li H
1 1
direct
   0.2387664322973138    0.3734551083889638    0.0381813771603323 Li
   0.7387664322973136    0.8734551083889639    0.5381813771603322 H
