Li4 Cu1 H3
1.0
   2.3823479624377804    0.0028261630648331    0.2885885484301912
   1.1683324311830277    2.0762663848478788    0.2880805113346454
   0.0031733209139340    0.0042749962358703    9.8644140599000139
Li Cu H
4 1 3
direct
   0.5652095924550563    0.8594264028528746    0.7873671159538492 Li
   0.0343574246891839    0.3285742350870027    0.3784530961632664 Li
   0.8305496007526153    0.1247664111504340    0.9921738356056706 Li
   0.2996863585948530    0.5939031689926713    0.5832538706134962 Li
   0.4324760098272853    0.7266928202251047    0.1853079847119606 Cu
   0.9324636232486697    0.2266804336464866    0.6853009686912330 H
   0.1968560844111355    0.4910728948089541    0.8932407005142966 H
   0.6680473168677178    0.9622641272655351    0.4774322499169374 H
