Li1 Cu1 H2
1.0
   2.4660407898385013    0.0000000000000000    0.0000495739725612
  -0.0000000019703681    2.4660407883889297    0.0000980153088489
  -0.0000694920513700   -0.0001373963903318    3.4568590006870434
Li Cu H
1 1 2
direct
   0.5403058521828683    0.8662534938399915    0.5146522534117679 Li
   0.0403058521828683    0.3662534938399915    0.0146522534117679 Cu
   0.5403058521828683    0.8662534938399915    0.0146522534117679 H
   0.0403058521828683    0.3662534938399915    0.5146522534117679 H
