Li1 H1
1.0
   2.0445608765248009   -0.0058916480326283   -1.1761422957001397
  -1.3589110261560249    1.9279215966612993   -0.0073300194895975
  -0.0033731469573055    0.0058916480326287    2.3587133143793158
Li H
1 1
direct
   0.4558388864576202    0.6124290369810694    0.5248461760006649 Li
   0.4558388864576202    0.1124290369810694    0.0248461760006649 H
