Cu2 H1
1.0
   2.4621047193273515    0.0013366191775154    0.0018264953679387
  -1.2322077073080722    2.1308608559289972   -0.0033528226235963
  -0.0030265584275571    0.0021732403062266    4.0781921070755196
Cu H
2 1
direct
   0.9014592059400116    0.2579903380547977    0.7177195418658211 Cu
   0.5681274401434906    0.5913268064617349    0.1916756195028548 Cu
   0.2347246079499395    0.9245211420746323    0.4542946334126891 H
