Li3 Cu1 H4
1.0
   3.4072796531757206   -0.0037405715189438    0.0060118662759050
   0.0066019005598646    3.4072794290160036    0.0028419834696270
  -0.0061520596956404   -0.0029676992497855    3.4065268980140662
Li Cu H
3 1 4
direct
   0.0791871560231456    0.3348303733003064    0.1529205440803096 Li
   0.0791871560231456    0.8348303733003064    0.6529205440803096 Li
   0.5791871560231456    0.8348303733003064    0.1529205440803096 Li
   0.5791871560231456    0.3348303733003064    0.6529205440803096 Cu
   0.5791871560231456    0.8348303733003064    0.6529205440803096 H
   0.0791871560231456    0.8348303733003064    0.1529205440803096 H
   0.5791871560231456    0.3348303733003064    0.1529205440803096 H
   0.0791871560231456    0.3348303733003064    0.6529205440803096 H
