Li6 Cu2 H1
1.0
   3.9762858826236083    0.0036652603231942   -2.2805257878259551
  -1.3081891718825771    3.7570736379084497   -2.2769935207037695
  -0.0170414290825239   -0.0283011816252450    4.5780471206223297
Li Cu H
6 2 1
direct
   0.8462174262104523    0.2473418413491816    0.1295210260163486 Li
   0.3497547214455911    0.7438045461140430    0.1295210260163486 Li
   0.8462068446907753    0.7437939645943661    0.1295210260163486 Li
   0.3489179687092812    0.2465050886128789    0.6318285898859485 Li
   0.3494548908876818    0.2470420107912797    0.1295210260163486 Li
   0.8466104048396671    0.7441975247432649    0.6272134621467417 Li
   0.3477937017190530    0.7453808216226437    0.6295210260163486 Cu
   0.8477937017190530    0.2453808216226438    0.6295210260163486 Cu
   0.5977572922064029    0.4953444121100006    0.1295210260163486 H
