Li9 Cu1 H1
1.0
   3.2605719504831177   -0.1277119908249149   -0.8192176695572146
  -0.4187328815102211    4.1616592533080476   -0.9384924298368460
  -0.0579649994457645   -0.1192778127063717    6.2467245734352268
Li Cu H
9 1 1
direct
   0.7680385487976563    0.3846434757778948    0.4089093179743256 Li
   0.5639624885172730    0.1074021091295739    0.9746412570068707 Li
   0.3712676167462831    0.6772797717348683    0.6145457964776788 Li
   0.9416989761440426    0.9746508884336843    0.7485093266294041 Li
   0.7328398542962556    0.8753915712459737    0.3502391101619707 Li
   0.9466836398847740    0.4641400243999727    0.7924174668390316 Li
   0.5250552157056095    0.5652925713325785    0.9762895489771366 Li
   0.1643917497074497    0.5382414405452817    0.2235091875982611 Li
   0.1434578060024442    0.0247044418585802    0.1482158050665562 Li
   0.3369383645420053    0.1548020829745567    0.5541669708181551 Cu
   0.0988584299470833    0.2748621715515648    0.9844141582558873 H
