Li6 Cu1 H1
1.0
   3.9161085602072960    0.0115582094824795   -0.6378828261477816
  -0.7545492156923865    3.8391831397520373   -0.6492783098115030
   0.0087978192001518    0.0216779149562956    3.9676127065404829
Li Cu H
6 1 1
direct
   0.2993004466096553    0.4675114798373051    0.4942195462589235 Li
   0.1492667558170403    0.1983061654544081    0.9245994351986841 Li
   0.5970777386223259    0.0475248343229939    0.6162726985105905 Li
   0.4486995344328538    0.7769417392619620    0.0464615764319231 Li
   0.7195661389953207    0.3463241080527126    0.1956081443942763 Li
   0.0285202163999923    0.8985529969162643    0.3447280714214163 Li
   0.8739565653839062    0.6229396166279882    0.7701542841937599 Cu
   0.3739099110386036    0.1225236457988921    0.2700318757894105 H
