Li1 Cu5 H4
1.0
   2.4304148920446793   -0.0000000000000000   -0.4988574746427553
  -0.1028474428611013    4.2359836722906490   -0.5010688812818508
   0.0026901194697637    0.0004260200782792    6.1829799631032420
Li Cu H
1 5 4
direct
   0.0444287569917470    0.6706504034234928    0.3148349362863166 Li
   0.3746148356022685    0.7781927718845242    0.9752070935073612 Cu
   0.7142381814284086    0.5631136149900263    0.6544537851596423 Cu
   0.8748681788524788    0.2830208811566703    0.9757137800077835 Cu
   0.2139870138529725    0.0582902311061582    0.6539514500087686 Cu
   0.5444267769444686    0.1706431836729961    0.3148309761917603 Cu
   0.6272623822904139    0.8541766308208387    0.4805021868836521 H
   0.4616002837600771    0.4871285025937692    0.1491779898229781 H
   0.9584758163445382    0.9641163171234554    0.1429290549919014 H
   0.1303795919745229    0.3771798958131320    0.4867366062518695 H
