Li1 Cu1 H2
1.0
   2.4899535332886136    0.0000000000000000    0.0000500546822447
  -0.0000000019894744    2.4899535318249844    0.0000989657452505
  -0.0000688787157925   -0.0001361837322976    3.4263488262174917
Li Cu H
1 1 2
direct
   0.5403058521828653    0.8662534938399920    0.5146522534117679 Li
   0.0403058521828657    0.3662534938399931    0.0146522534117684 Cu
   0.5403058521828653    0.8662534938399929    0.0146522534117684 H
   0.0403058521828656    0.3662534938399931    0.5146522534117681 H
