Li1 Cu4 H1
1.0
   2.3610472260436350    0.0011913252494168   -0.3719384616206021
  -0.0594074090900099    2.3603504622905902   -0.3716182140405722
   0.1402173299036073    0.1426998071502679    8.5500480547603281
Li Cu H
1 4 1
direct
   0.3363930152773703    0.4505906550825731    0.1440844409997004 Li
   0.9353768631756186    0.0495745029808207    0.3413787330335709 Cu
   0.7373615735174812    0.8515592133226841    0.9467575544677233 Cu
   0.5361395013503767    0.6503371411555792    0.5433166339262986 Cu
   0.1365961266476484    0.2507937664528507    0.7448343427833939 Cu
   0.8363937731578279    0.9505914129630313    0.1440624234791688 H
