Li2 Cu2 H3
1.0
   2.4143815751701410    0.0000000000000000    0.3670808298781956
   1.1792689703424657    2.1067708864166854    0.3671891255464705
   0.0284594188509190    0.0162766226664353    7.9363486988561371
Li Cu H
2 2 3
direct
   0.1540024891889969    0.5926622893025165    0.4267114238466086 Li
   0.7400392212150074    0.1786990213285283    0.6686012277685747 Li
   0.5718953503672540    0.0105551504807721    0.1730328403118399 Cu
   0.3221430907602242    0.7608028908737458    0.9222896191329242 Cu
   0.0315466106472068    0.4702064107607277    0.7940790594719775 H
   0.8624937742453126    0.3011535743588326    0.3012375686776601 H
   0.4470188786422413    0.8856786787557631    0.5476622554868698 H
