Li9 Cu1 H1
1.0
   3.3690385233616791   -0.0033261109179692   -0.8765873638750629
  -0.1749458198994113    4.3164328302559722   -0.6620471685576769
  -0.2841548164758380    0.2071113833598135    5.8237565601281398
Li Cu H
9 1 1
direct
   0.7555708395423453    0.3971377591385039    0.3838606137430600 Li
   0.5538151179339375    0.1408624261176020    0.9772898617187519 Li
   0.3570511414566988    0.7073862597470891    0.5864285507637521 Li
   0.9485740283497435    0.9466360525745029    0.7685128962420222 Li
   0.7524568235924970    0.9056818157531814    0.3769317101990847 Li
   0.9514217872995188    0.4438785006823496    0.7756202131769041 Li
   0.5492113078960585    0.6213607453557318    0.9734862305364224 Li
   0.1647583408285051    0.4819331137422276    0.2034950309255206 Li
   0.1512082014822745   -0.0301787276880795    0.1740579123702826 Li
   0.3494130524270175    0.2012883164485488    0.5724541086688067 Cu
   0.0597120494822699    0.2254242871128808    0.9837208174606612 H
