Li1 Cu2 H2
1.0
   2.4100177799049161    0.0009178682252319    0.4879828356592625
   1.1547674986239780    2.1153934911364751    0.4877870351056046
   0.0445284913778503    0.0269874437136660    5.9749092038677185
Li Cu H
1 2 2
direct
   0.5202816353682019    0.2831695910533032    0.8590582381851104 Li
   0.7419352941241872    0.5048232498092888    0.1914537960919840 Cu
   0.2965308073082027    0.0597796532165279    0.5266618984233834 Cu
   0.9060288077446722    0.6685558732065496    0.6996775342928940 H
   0.1331592044346940    0.8959569863848098    0.0184381602224736 H
