Li2 Cu6 H4
1.0
   2.4354865397414711   -0.0046720956049159    0.0025406537488829
   0.0037889328101798    4.2104467279145164   -0.1118193775230154
  -0.0018067650638519    0.2150519200827554    7.8304724787894617
Li Cu H
2 6 4
direct
   0.2541010320734155    0.0825295770841988    0.0397716207383657 Li
   0.7534875272721582    0.5824545996840540    0.0398459648981931 Li
   0.7539001843507268    0.9156374917992141    0.7882300618553607 Cu
   0.2516351685316524    0.4152902175842356    0.2914519519489963 Cu
   1.2506004572583818    0.7494248076936862    0.5397688149573983 Cu
   0.7495477799168565    0.2493972979572083    0.5398393075516684 Cu
   0.7522652746253238    0.9153287244790392    0.2914394048072851 Cu
   0.2531701941961244    0.4157265493551460    0.7881728296031784 Cu
   0.2528976578155147    0.7490003428325526    0.1642504380463648 H
   0.7531874082260257    0.2490719656948268    0.1642000962639489 H
   0.2544385765155159    0.7488588894689198    0.9154845629251802 H
   0.7545328719232657    0.2489599789155981    0.9153263684033188 H
