Li6 H2
1.0
   2.4160873298081023    0.0126966407813045   -0.4866957993617474
  -0.1376765961852753    3.6889972622475367   -0.5946653634223873
  -0.0691090501503330   -0.0215038476778571    5.9245869817206804
Li H
6 2
direct
   0.1343357528970813    0.2098029669619113    0.4132557866681614 Li
   0.9715189270088532    0.6510823829822349    0.0869047877643534 Li
   0.4715102269629921    0.1510830422836455    0.0869019873586759 Li
   0.6343564651893493    0.7098034781543137    0.4132598614802805 Li
   0.7973159760426297    0.2686050361690978    0.7396103255160290 Li
   0.2973225864971987    0.7686054996511382    0.7396117192201491 Li
   0.8844203012596883    0.9598460111652273    0.9132599089093275 H
   0.3844177963166225    0.4598470459114048    0.9132582252654398 H
