Li3 Cu5 H4
1.0
   3.4352996884809723    0.0036665263261579   -0.0015654241315859
  -0.0031874091947949    3.4333794847873951   -0.0003207272994061
   0.0036457872959459    0.0007295986524266    6.6293878472633567
Li Cu H
3 5 4
direct
   0.2963765291256370    0.2859223917654349    0.2393996314106120 Li
   0.7964150437449458    0.2859316941356836    0.5097077688204503 Li
   0.7963867292947713    0.7859264527697098    0.2394275686709499 Li
   0.7964081484178082    0.7859485006124060    0.7545335174017581 Cu
   0.2964187775917972    0.7859536349282331    0.5009744481287781 Cu
   0.7963870546052193    0.2859261966656527    1.0036538520837968 Cu
   0.2963854433894838    0.7859466965894178    0.9991391229395079 Cu
   0.2964101327462439    0.2859241395784558    0.7545534097516707 Cu
   0.7964154150383705    0.7859537147003585    0.4942314556239639 H
   0.7963979051526849    0.2859390872727693    0.2537876079239526 H
   0.2964227589238034    0.2859551175741582    0.4942183920411391 H
   0.2963858398375998    0.7859229176079723    0.2470150566004729 H
