Cu2 H1
1.0
   2.4677439509509944    0.0013396805847231    0.0018306787929403
  -1.2350271231484260    2.1323390243651947   -0.0047073102892994
  -0.0030203752495144   -0.0004201587078612    4.0717550554472615
Cu H
2 1
direct
   0.9013249883401746    0.2577219028551093    0.7172725304911189 Cu
   0.5683301096364205    0.5917321454476011    0.1926012976072592 Cu
   0.2346561560568478    0.9243842382884553    0.4538159666829857 H
