Li1 H1
1.0
   2.0766579047980489   -0.0053070197335074   -1.1940561960618317
  -1.3800839272280851    1.9579597412425633   -0.0082718107076003
  -0.0029489191006105    0.0053070197335075    2.3954685463996412
Li H
1 1
direct
   0.4558388864576231    0.6124290369810715    0.5248461760006636 Li
   0.4558388864576228    0.1124290369810715    0.0248461760006637 H
