Li2 Cu6 H2
1.0
   2.3868163823492310    0.2384577810699346    0.0033360711547084
  -0.6619051391190104    6.6103029789071881    0.0053613314191457
  -0.0045980297664935   -0.0044543682301118    4.7976427344090089
Li Cu H
2 6 2
direct
   0.1395917385062770    0.8289784005631056    0.7411466970625170 Li
   0.1402185186222830    0.8289053028682751    0.2411357771106199 Li
   0.6399850275327471    0.5808860452414326    0.4911713611892339 Cu
   0.6398252295958116    0.0769976581899470    0.4911111129839035 Cu
   0.6398062193975691    0.0769914956759280    0.9911661501206985 Cu
   1.1397395250796720    0.3288958178981631    0.2411342667562294 Cu
   0.1400707320488851    0.3289878855332163    0.7411482074169087 Cu
   0.6400040377309899    0.5808922077554509   -0.0088836759475607 Cu
   0.6399051285642804    0.8289418517156915    0.4911412370865688 H
   0.6399051285642793    0.8289418517156891    0.9911412370865692 H
