Li2 Cu11 H2
1.0
   3.9181324377800304    0.0481577508874467    1.3142359750484163
   2.2623389193314658    5.1059188290073108    1.7855093822640880
   0.0591264433978147   -0.0326188718081225    6.3149180008684969
Li Cu H
2 11 2
direct
   0.0386874926361614    0.7266050628412996    0.6009487654053783 Li
   0.8097920141933493    0.1951486280693074    0.4428256533376279 Li
   0.9588474721903264    0.8872259655088068    0.2195792648843357 Cu
   0.1122111648603424    0.5758975714325597    0.9862322424353549 Cu
   0.2599951544897838    0.2706114586341464    0.7566666521546227 Cu
   0.5006946846988335    0.8032520168631263    0.9086343406964387 Cu
   0.6498192928541899    0.5008012694652646    0.6790134084742973 Cu
   0.5730805595774756    0.6562373028769163    0.2927229747023726 Cu
   0.4212306346908299    0.9609807110481804    0.5199972962988894 Cu
   0.8873854682669887    0.0348310498208619    0.8294759243386944 Cu
   0.1861595484604939    0.4238864276455215    0.3695513496732390 Cu
   0.7280220003666230    0.3442571684533053    0.0654850059599264 Cu
   0.3414330727572371    0.1155663792379253    0.1413541875070020 Cu
   0.4221180272961848    0.4610269679463897    0.5230047745372993 H
   0.6647388296507296    0.9969282066396224    0.6697996569789707 H
