Cu4 H1
1.0
   3.4441124680061961   -0.0000000000000000    0.0019664809904182
   0.0000001133668075    3.4441130236826507   -0.0001985516448379
  -0.0019664809871504    0.0001985516772023    3.4441124622829871
Cu H
4 1
direct
   0.8386724593886927    0.7274323101882825    0.8204190136196267 Cu
   0.8386724593886928    0.2274323101882824    0.3204190136196268 Cu
   0.3386724593886928    0.7274323101882825    0.3204190136196267 Cu
   0.3386724593886928    0.2274323101882823    0.8204190136196269 Cu
   0.8386724593886929    0.7274323101882825    0.3204190136196269 H
