Li1 Cu1
1.0
   2.5695936636687247    0.0000000000000000   -0.0001113062737207
   0.0000000036739836    2.5695936646796254    0.0000848168263672
   0.0001108300859875   -0.0000844539652547    2.5586004919362590
Li Cu
1 1
direct
   0.5425601591288817    0.1355231395531410    0.2050071363302793 Li
   0.0425601591288809    0.6355231395531408    0.7050071363302797 Cu
