Li6 Cu1 H1
1.0
   3.9199846558339457   -0.0059830203746217   -0.6513416048306512
  -0.7738459822822243    3.8349052240485997   -0.6720314719337789
  -0.0029353044847301   -0.0023267343163732    3.9792386880956752
Li Cu H
6 1 1
direct
   0.3031554394628905    0.4804077454118031    0.4888023426386388 Li
   0.1558617374530390    0.1934317228310001    0.9135699999500754 Li
   0.5917140471954137    0.0517359195476743    0.6269536566072483 Li
   0.4444152708112437    0.7647502635947429    0.0516889624736778 Li
   0.7312571483565606    0.3405181551954232    0.1989478567054793 Li
   0.0163165518748058    0.9046317953583054    0.3415796530371148 Li
   0.8737931379126357    0.6225915099143202    0.7702693880952356 Cu
   0.3737839742331058    0.1225574744192553    0.2702637726915074 H
