Cu3 H1
1.0
   2.3896502731608296    0.0000000000000001    0.4800749830318011
   1.1468117419475845    2.0967240435009393    0.4790318687590908
  -0.0035091689279714    0.0010068706404274    6.2049388125797629
Cu H
3 1
direct
   0.4777799266812985    0.8489822501250200    0.0925088113126398 Cu
   0.6917967788708651    0.0629991023145872    0.4504582547439379 Cu
   0.2515181578682467    0.6227204813119680    0.7712941177517940 Cu
   0.0847627451768397    0.4559650686205617    0.2715603558260147 H
