Li6 Cu2 H1
1.0
   3.9537303216352222   -0.0003388043867144   -2.2643809465299420
  -1.3045266165433684    3.7344476104768742   -2.2608662042118914
   0.0021809886071354   -0.0012385528000914    4.5789782553266960
Li Cu H
6 2 1
direct
   0.8477333788173228    0.2455258808698524    0.1295210260163468 Li
   0.3479387609662564    0.7453204987209177    0.1295210260163461 Li
   0.8482237638028960    0.7458108837064913    0.1295210260163454 Li
   0.3504455020805815    0.2480326219841765    0.6347450417433680 Li
   0.3474476308462217    0.2450347507498169    0.1295210260163468 Li
   0.8452214863535600    0.7428086062571549    0.6242970102893252 Li
   0.3478328259819374    0.7454199458855325    0.6295210260163461 Cu
   0.8478328259819372    0.2454199458855330    0.6295210260163466 Cu
   0.5978307775972452    0.4954178975008404    0.1295210260163459 H
