Li3 Cu1 H4
1.0
   3.4323048553465805   -0.0032839454164688    0.0074240764059732
   0.0071332144965661    3.4323044349343297    0.0042313620464518
  -0.0048347204045091   -0.0016276719352329    3.4352388589183165
Li Cu H
3 1 4
direct
   0.0791871560231466    0.3348303733003072    0.1529205440803071 Li
   0.0791871560231468    0.8348303733003068    0.6529205440803071 Li
   0.5791871560231466    0.8348303733003063    0.1529205440803070 Li
   0.5791871560231466    0.3348303733003073    0.6529205440803073 Cu
   0.5791871560231466    0.8348303733003072    0.6529205440803069 H
   0.0791871560231466    0.8348303733003065    0.1529205440803070 H
   0.5791871560231462    0.3348303733003070    0.1529205440803070 H
   0.0791871560231468    0.3348303733003069    0.6529205440803073 H
