Li4 Cu1 H5
1.0
   3.0224365498460757    0.0044661801774112    1.3727833034726413
   1.5064945453355822    3.6872428504400703    0.6806809856273361
  -0.0144122477473688    0.0054184382718197    4.0403910710947244
Li Cu H
4 1 5
direct
   0.7994074215376875    0.0797199588199674    0.0068463648680622 Li
   0.2041829403206981    0.4775542336102419    0.7992885364603913 Li
   0.4014716295834693    0.6851166385010171    0.1971026118604773 Li
   0.9966252691671312    0.2872805303735049    0.4046844410762865 Li
   0.6000626065484059    0.8824238271193762    0.6019761600126939 Cu
   0.5003097205618551    0.2920461834962246    0.3923988978490512 H
   0.2908214538289164    0.0919936757568918    1.0115976002468814 H
   0.9099529670741898    0.6728442959362756    0.1923604941385382 H
   0.7003794884136494    0.4727952925524129    0.8115668852355570 H
   0.1002486830672539    0.8824157817556270    0.6019679901531151 H
