Li4 Cu2 H6
1.0
   3.3499759429006439   -0.0057327116531710    0.0040105791502275
  -1.6662596736994442    3.4977807941753474   -1.2007732506827649
  -0.0047797889454763    0.0057236311222435    4.7697170384416054
Li Cu H
4 2 6
direct
   0.6062090913979480    0.4958006913259584    0.4850711737183024 Li
   0.2777537778257767    0.8380037836960915    0.3205980051810954 Li
   0.6065845364696136    0.4957802438516154    0.9850691187237732 Li
   0.2773713726974900    0.8380206575047804    0.8206047178035510 Li
   0.9419951559363241    0.1669060849286662    0.1528373535519881 Cu
   0.9419808112594452    0.1669167940079931    0.6528396709749426 Cu
   0.4419716678895289    0.1669057448650703    0.1528244716026484 H
   0.7645463785465170    0.8123909833327225    0.8142653696329546 H
   0.1190402759670848    0.5213859456608914    0.4914063544339581 H
   0.4419874318704645    0.1668966265854744    0.6528483115898742 H
   0.7649150194393315    0.8123978122436236    0.3142618509874232 H
   0.1194069229268411    0.5213939010009189    0.9913994840360253 H
