Li2 Cu2 H2
1.0
   2.3366156278787682   -0.0000000000000000   -0.0003984233307235
   0.0000000841910299    2.3366156096795199    0.0004937513971095
   0.0010977697070837   -0.0013604257199834    6.4380412882093863
Li Cu H
2 2 2
direct
   0.5947507021586689    0.0011813627085224    0.1923236869757959 Li
   0.0947507021586689    0.5011813627085221    0.9330701056288895 Li
   0.0947507021586689    0.5011813627085228    0.4338433125786024 Cu
   0.5947507021586680    0.0011813627085224    0.6915504800260829 Cu
   0.5947507021586687    0.0011813627085224    0.9439372004710727 H
   0.0947507021586690    0.5011813627085233    0.1814565921336122 H
