Li2 Cu6 H4
1.0
   2.3848888929527208    0.0003313970862963    0.0021276065806218
   0.0014914955839542    4.1282974375297696   -0.1086538346887156
  -0.0036573170260262    0.1988794252059236    7.6287173481417154
Li Cu H
2 6 4
direct
   0.2532459339043205    0.1102002174869866    0.0398666635899119 Li
   0.7533459308168102    0.6101343868932786    0.0397684650922182 Li
   0.7534739959535421    0.9432608165175776    0.7897750382814526 Cu
   0.2522223444687161    0.4436993950603558    0.2899019316421651 Cu
   0.7521417811608472    0.6101313688127898    0.5398075222767722 Cu
   1.2508961415677926    0.1100904115315535    0.5398237909576453 Cu
   0.7517504029478669    0.9436867709546347    0.2899123281541349 Cu
   0.2539091164046660    0.4432385953244205    0.7896917555661731 Cu
   0.2524074208762945    0.7770695613801948    0.1599477996147015 H
   0.7524010968833245    0.2770097541541820    0.1599346609445781 H
   0.2539931248800880    0.7765747722568356    0.9196522131023712 H
   0.7539769230511187    0.2765844157032517    0.9196993261564542 H
