Cu3 H1
1.0
   2.3445215842727429    0.0000000000000000    0.4710087381525713
   1.1251541333440040    2.0571272840478620    0.4699853231555317
  -0.0030709852222416    0.0012073871189535    6.0859069147002058
Cu H
3 1
direct
   0.4777463256741049    0.8489486491178275    0.0926096143342186 Cu
   0.6917902442608940    0.0629925677046156    0.4504778585738529 Cu
   0.2515087447367689    0.6227110681804905    0.7713223571462269 Cu
   0.0848122946296470    0.4560146180733692    0.2714117074675922 H
