Li1 Cu4 H1
1.0
   2.3026377355660421    0.0009582584663351   -0.3632382028555612
  -0.0581413365448476    2.3019530540983872   -0.3629258508809134
   0.1478287040803563    0.1505267709751876    8.4186893197609347
Li Cu H
1 4 1
direct
   0.3363769856956587    0.4505746255008611    0.1440725914653442 Li
   0.9342369817445902    0.0484346215497922    0.3398083590111538 Cu
   0.7385168501831327    0.8527144899883352    0.9483362899202160 Cu
   0.5357324342378248    0.6499300740430269    0.5427886499888752 Cu
   0.1370206972595283    0.2512183370647303    0.7453559712864849 Cu
   0.8363769135690179    0.9505745533742215    0.1440722386936320 H
