Li2 Cu2 H4
1.0
   3.8289349967430448   -0.6002878822729212   -1.5085530889805687
  -1.5513347047460488    3.5489270564666451   -1.5150242753466550
  -0.2208940049561540   -0.2811814638896853    3.3667693071885583
Li Cu H
2 2 4
direct
   0.5427182645797580    0.2540420383112161    0.3268083005094716 Li
   0.7927141342077418    0.0040461686832320    0.8268083005094720 Li
   0.2921760237361851    0.5035117551511572    0.8257362205131670 Cu
   0.0421838510476835    0.7535039278396607    0.3257362205131676 Cu
   0.5503866319354288    0.2437652030636407    0.8249137379592802 H
   0.7824372989601660    1.0117145360389037    0.3249137379592807 H
   0.3010613348643169    0.4944438048564328    0.3249294404757511 H
   0.0331159007529590    0.7623892389677915    0.8249294404757516 H
