Cu4 H1
1.0
   3.3790628120909250   -0.0000000000000000    0.0004747719648659
   0.0000001323967287    3.3790627140581400   -0.0009422983993713
  -0.0004747719464055    0.0009422984086723    3.3790626807044539
Cu H
4 1
direct
   0.2736144969571442    0.9835667616378184    0.6469917898944306 Cu
   0.7736144969571445    0.9835667616378184    0.1469917898944312 Cu
   0.7736144969571445    0.4835667616378186    0.6469917898944306 Cu
   0.2736144969571442    0.4835667616378185    0.1469917898944311 Cu
   0.2736144969571441    0.4835667616378186    0.6469917898944306 H
