Li1 Cu7 H2
1.0
   2.3708119012823534    0.0013460490006183   -0.0011638710655388
  -0.0048761289708165    5.9038480867038006   -3.0520637658605247
   0.0030220907897081   -0.7918874264869256    5.7039038189153297
Li Cu H
1 7 2
direct
   0.6215410965375042    0.4117532259666324    0.4633308371297196 Li
   0.6215640034597618    0.6621962106694663    0.9641498351533678 Cu
   0.1215521579759206    1.0373126123922811    0.2172060325605043 Cu
   0.1215413273883681    0.2834432970685076    0.7095019079778914 Cu
   0.1215397023139601    0.7861956538522764    0.7094154202760384 Cu
   0.6215262363179075    0.1613002134347533   -0.0375152893321416 Cu
   0.6215476048850180    0.9117403613036966    0.4633089959153696 Cu
   0.1215506243297068    0.5400537867456533    0.2171283472892294 Cu
   0.1214980763166081    0.2950549660549251    0.2299108487577269 H
   0.1215811863132442    0.5284689866328991    0.6967742271262068 H
