Li1 Cu2 H1
1.0
   2.2416310897988487    0.0007628458731310   -0.6151840685612445
  -0.1693280071945444    2.2353856752403849   -0.6146062738109507
   0.2140674908943767    0.2296231487856614    5.1693687303312990
Li Cu H
1 2 1
direct
   0.3312216699159124    0.9962100981173313    0.0065355420564257 Li
   0.6665603200840169    0.3315487482854371    0.6772824792745783 Cu
  -0.0041169802521920    0.6608714479492278    0.3357886048382754 Cu
   0.8312216699159125    0.4962100981173326    0.0065355420564260 H
