Li2 Cu11 H2
1.0
   3.8368475529879857    0.0517657106524299    1.2894558011815116
   2.2238550849348924    4.9949530628537264    1.7444654195894060
   0.0619850618815687   -0.0385063429828915    6.1836477345236078
Li Cu H
2 11 2
direct
   0.0390859793424159    0.7262199135430523    0.6009402719542737 Li
   0.8086049423943646    0.1949981788278482    0.4431088102695435 Li
   0.9575844089663088    0.8871188264000502    0.2226827407387025 Cu
   0.1122610458110776    0.5774059601902358    0.9852472800837910 Cu
   0.2607717391165585    0.2713828817565213    0.7565139500475854 Cu
   0.5010672604786651    0.8037750832359019    0.9082764782615375 Cu
   0.6510150123350805    0.5014000681942274    0.6786972895168373 Cu
   0.5727775102238900    0.6554266677898295    0.2930722175771903 Cu
   0.4173346514139691    0.9611370478682091    0.5207343477395886 Cu
   0.8872341976790413    0.0355429634133788    0.8291766045327910 Cu
   0.1848519159660604    0.4228451041945000    0.3702399061461510 Cu
   0.7275896876339574    0.3437307547036804    0.0667630214608058 Cu
   0.3404056866312387    0.1157033090894376    0.1417478909138972 Cu
   0.4211309546588868    0.4618422491176251    0.5229654479917325 H
   0.6725003843454783    0.9947270574658950    0.6651253788294770 H
