Li1 H1
1.0
   1.9946218151356485    0.0029108895654773    1.1408867986681843
   0.6624767781071874    1.8800511493490124    1.1431008443565260
   0.0047231190916460    0.0006415769660157    2.2978521768367677
Li H
1 1
direct
   0.2387664322973140    0.3734551083889635    0.0381813771603323 Li
   0.7387664322973145    0.8734551083889629    0.5381813771603323 H
