Li9 Cu1 H1
1.0
   3.1972526433797568   -0.0025308271676997   -0.8313694197930185
  -0.1565614179312738    4.0551180555565338   -0.5950707647431156
  -0.2238301833114102    0.2909146751947642    5.7015572016023048
Li Cu H
9 1 1
direct
   0.7543564853969754    0.4256645758882922    0.3810419909951366 Li
   0.5536676854891784    0.0876583314489369    0.9777369294321230 Li
   0.3586010888281286    0.7179574545342009    0.5892454566323776 Li
   0.9475011057999994    0.9583830787961619    0.7666845020524431 Li
   0.7515612813516283    0.9267726524759822    0.3752494505931196 Li
   0.9522809151747783    0.4680513821212069    0.7771097868625284 Li
   0.5497374461085047    0.5644132556122932    0.9733172235056350 Li
   0.1655617889546676    0.4807694135847052    0.2043727465604151 Li
   0.1520854824637202   -0.0362256173100277    0.1756044341427566 Li
   0.3504012692000361    0.2130441373440806    0.5733632824668375 Cu
   0.0574388905802756    0.2349220690087049    0.9821319444337044 H
