Cu2 H1
1.0
   2.4198665936199433    0.0013136890850622    0.0017951613063330
  -1.2110658931047322    2.0908141485963840   -0.0046914891113652
  -0.0029613074685807   -0.0005563276437669    3.9922316913393523
Cu H
2 1
direct
   0.9013249883401754    0.2577219028551096    0.7172575526762086 Cu
   0.5683301096364214    0.5917321454476021    0.1926162754221686 Cu
   0.2346561560568486    0.9243842382884568    0.4538159666829854 H
