Li1 Cu5 H4
1.0
   2.3796759286801383   -0.0000000000000000   -0.4884429930606699
  -0.1005683374883605    4.1451113158907340   -0.4899651654511618
   0.0023706049625782    0.0011943731408539    6.0526168971033236
Li Cu H
1 5 4
direct
   0.0444276791312828    0.6706494103854169    0.3148327805653877 Li
   0.3748922076244711    0.7778728172573601    0.9757618375517645 Cu
   0.7139656924910562    0.5634309407611617    0.6539088072849338 Cu
   0.8751670164339486    0.2829333554407962    0.9763114551707212 Cu
   0.2136885426245893    0.0583685713388328    0.6533545075520008 Cu
   0.5444281927769038    0.1706522810543774    0.3148338078566300 Cu
   0.6254985566068426    0.8514955390152732    0.4769745355165075 H
   0.4633598559625104    0.4898145623097169    0.1526971342278425 H
   0.9594663435170608    0.9609941493726339    0.1449101093369421 H
   0.1293877284587141    0.3803007885232878    0.4847528792202505 H
