Li1 Cu1
1.0
   2.4877820148886669    0.0000000000000000   -0.0001077624644790
   0.0000000035570100    2.4877820158673800    0.0000821163976935
   0.0001079996923580   -0.0000822971685409    2.4932586087435267
Li Cu
1 1
direct
   0.5425601591288807    0.1355231395531410    0.2050071363302788 Li
   0.0425601591288809    0.6355231395531413    0.7050071363302781 Cu
