Li1 Cu3 H4
1.0
   3.4649615178199862    0.0013480036554318   -0.0071658569978785
  -0.0035505068231268    3.4704072291464008   -0.0033376427867089
   0.0026955874066307    0.0012398686827857    3.4739623702133438
Li Cu H
1 3 4
direct
   0.1500545437941879    0.4206275351434686    0.5632098992431449 Li
   0.6500545437941878    0.4206275351434683    0.0632098992431447 Cu
   0.1500545437941878    0.9206275351434682    0.0632098992431447 Cu
   0.6500545437941873    0.9206275351434690    0.5632098992431448 Cu
   0.1500545437941878    0.4206275351434683    0.0632098992431446 H
   0.6500545437941874    0.4206275351434684    0.5632098992431450 H
   0.6500545437941883    0.9206275351434687    0.0632098992431447 H
   0.1500545437941878    0.9206275351434681    0.5632098992431449 H
