Li6 H2
1.0
   2.3452185600600202    0.0108215154108113   -0.4780636164923805
  -0.1265786685946869    3.3891375239544717   -0.5379159570519827
  -0.0825794709596159    0.0400849590309361    5.7478845639141811
Li H
6 2
direct
   0.1345147006000792    0.2099106531801191    0.4132496152283680 Li
   0.9740099788070631    0.6341136520693463    0.0881231991822831 Li
   0.4739868695217095    0.1341023645412228    0.0881039298154561 Li
   0.6345532339840785    0.7099212700975014    0.4132636534090873 Li
   0.7947152856949335    0.2855157546529314    0.7384118961402605 Li
   0.2947149281390751    0.7855097460673280    0.7384055404774988 Li
   0.8843509374108194    0.9597864986335418    0.9132430508844909 H
   0.3843524299264072    0.4598154852759622    0.9132617118398452 H
