Li6 Cu2 H1
1.0
   3.6251037245617646    0.0012854505533885    0.0085225739425527
  -0.0063005704082727    3.8128928056001730   -2.1856553078696073
  -0.0002452008499773   -0.0005963009515260    4.3949152384665355
Li Cu H
6 2 1
direct
   0.8366433323059453    0.8419587634770999    0.7726342037544783 Li
   0.8376561781042811    0.3396465970209564    0.7734118850532562 Li
   0.3319986822771460    0.0098319424608085    0.1062955099281319 Li
   0.3319986822771463    0.5082974573034448    0.6047610247707679 Li
   0.3330115280754817    0.5075197760046664    0.1070731912269108 Li
   0.8376561781042804    0.8411810821783210    0.2749463702106208 Li
   0.3403584718612043    0.0089228487536804    0.6056701184778956 Cu
   0.8292963885202226    0.3405556907280844    0.2740372765034922 Cu
   0.0848274301907128    0.6747392697408829    0.9398536974906945 H
