Li1 Cu2 H2
1.0
   2.3577833823325069    0.0009171739834103    0.4774362599753680
   1.1297560778308238    2.0695355510200910    0.4772447058050849
   0.0472137496420498    0.0285679071122575    5.8277193124891671
Li Cu H
1 2 2
direct
   0.5202816353682019    0.2831695910533029    0.8590582381851101 Li
   0.7424074593958059    0.5052954150809060    0.1899481614065034 Cu
   0.2960586420365859    0.0593074879449110    0.5281675331088637 Cu
   0.9047321768268753    0.6672592422887521    0.7036931700805783 H
   0.1344558353524903    0.8972536173026060    0.0144225244347888 H
