Li1 Cu1
1.0
   2.6138618468580965   -0.0000000000000000    0.0020791703713714
  -1.3069311446119538    2.2636714604239692   -0.0007615216052937
  -0.0034575546770254   -0.0005339401736693    4.3467194310493760
Li Cu
1 1
direct
   0.5071817024379115    0.2315742523592590    0.9046226142379652 Li
   0.1738483691045758    0.5649075856925947    0.4046226142379652 Cu
