Li1 H1
1.0
   2.4509815227249359   -0.0063888962731904   -1.4093900553345975
  -1.6288777171747615    2.3109298136221552   -0.0096098810869839
  -0.0035687515893287    0.0063888962731905    2.8273093245747267
Li H
1 1
direct
   0.4558388864576202    0.6124290369810694    0.5248461760006649 Li
   0.4558388864576202    0.1124290369810694    0.0248461760006649 H
