Li1 Cu1
1.0
   2.5103582036239542   -0.0000000000000000    0.0019968394292829
  -1.2551793142364873    2.1740346483175230   -0.0007313668897168
  -0.0032381946644253   -0.0005000650410497    4.0709475291617698
Li Cu
1 1
direct
   0.5071817024379115    0.2315742523592590    0.9046226142379652 Li
   0.1738483691045758    0.5649075856925947    0.4046226142379652 Cu
