Li1 H1
1.0
   2.2738076303819224   -0.0054070019807157   -1.3070871308497987
  -1.5110080628872729    2.1437048704002351   -0.0095501726996453
  -0.0029442786987954    0.0054070019807158    2.6227217234848150
Li H
1 1
direct
   0.4558388864576202    0.6124290369810694    0.5248461760006649 Li
   0.4558388864576202    0.1124290369810694    0.0248461760006649 H
