Cu4 H1
1.0
   3.5943818083974666   -0.0000000000000000    0.0005050251529935
   0.0000001408332487    3.5943817041178852   -0.0010023430794665
  -0.0005050251333569    0.0010023430893603    3.5943816686388494
Cu H
4 1
direct
   0.2736144969571441    0.9835667616378182    0.6469917898944308 Cu
   0.7736144969571442    0.9835667616378182    0.1469917898944313 Cu
   0.7736144969571441    0.4835667616378184    0.6469917898944310 Cu
   0.2736144969571441    0.4835667616378184    0.1469917898944311 Cu
   0.2736144969571441    0.4835667616378184    0.6469917898944308 H
