Li2 Cu2 H4
1.0
   2.5238677163786893   -0.0007713650471512   -0.7490534690916499
  -0.3487427664727265    4.3672830090778518   -1.1789069786532695
   0.0454160973374122    0.1254652520924937    4.7800521239741727
Li Cu H
2 2 4
direct
   0.4005496609520736    0.6033546046557650    0.3941783681986951 Li
   0.6049443257722026    0.2235085622095119    0.8029357823602439 Li
   0.8580800082874718    0.0856950468915552    0.3091544605087351 Cu
   0.1474925356199786    0.7411592411033617    0.8879793025071547 Cu
   0.2650565293322000    0.1878401135017399    0.1230529979934993 H
   0.0027342850059760    0.4134461201265208    0.5984901672941441 H
   0.7404788828762588    0.6388872277580627    0.0739054144840682 H
   0.0027688372096926    0.9133761828204382    0.5985506993893219 H
