Li1 Cu4 H1
1.0
   2.5298836164410159    0.0012304327080749   -0.3985705953437849
  -0.0637016529222342    2.5291358505990682   -0.3982274410478688
   0.0784343084656638    0.0792895554771282    8.7120289969185407
Li Cu H
1 4 1
direct
   0.3363848963925761    0.4505825361977783    0.1440732510022988 Li
   0.9385926785906187    0.0527903183958215    0.3481915030876643 Cu
   0.7341527247381212    0.8483503645433237    0.9399475368608615 Cu
   0.5371738206621944    0.6513714604673972    0.5455389453355319 Cu
   0.1355685898251076    0.2497662296303100    0.7426061709795736 Cu
   0.8363881426174470    0.9505857824226487    0.1440767208929024 H
