Li1 H1
1.0
   2.2891909135683264   -0.0029759810086420   -1.3139256057500381
  -1.5206465452665330    2.1573778115223678   -0.0126275647800200
  -0.0012252218058643    0.0029759810086420    2.6394685137430458
Li H
1 1
direct
   0.4558388864576228    0.6124290369810710    0.5248461760006636 Li
   0.4558388864576230    0.1124290369810714    0.0248461760006637 H
