Cu3 H1
1.0
   2.4946495783344127    0.0000000000000000    0.5011690904899960
   1.1972017247085878    2.1888524064588966    0.5000801426176662
  -0.0046720763909248    0.0004556898621381    6.4825998710244335
Cu H
3 1
direct
   0.4779368930107721    0.8491392164544931    0.0920379123242196 Cu
   0.6917767337673755    0.0629790572110975    0.4505183900544067 Cu
   0.2515854562943032    0.6227877797380237    0.7710922224736254 Cu
   0.0845585249229005    0.4557608483666217    0.2721730165878333 H
