Li3 H1
1.0
   2.6155827996321279    0.0025344341231986   -0.0003661961110694
  -1.3123093001195776    2.2586862255490257   -0.0048471559565154
   0.0048578138193918    0.0007410891861169    6.4336989063177956
Li H
3 1
direct
   0.2452524501475714    0.3065404540164684    0.4405191803421399 Li
   0.5788462737413690    0.9731417291632675    0.1019281745379797 Li
   0.9124400973351673    0.6397430043100680    0.7633371687338192 Li
   0.5788462737413691    0.9731417291632679    0.6019281745379796 H
