Li1 Cu1
1.0
   2.4938685531497264   -0.0000000000000000    0.0019837229010541
  -1.2469344876040320    2.1597541876972546   -0.0007265628006579
  -0.0032310124221839   -0.0004989559081428    4.0619182599742611
Li Cu
1 1
direct
   0.5071817024379097    0.2315742523592624    0.9046226142379634 Li
   0.1738483691045760    0.5649075856925957    0.4046226142379635 Cu
