Li6 Cu1 H1
1.0
   4.3558995098974158    0.0001806342058238   -0.7190126640370653
  -0.8527645769430343    4.2650783332193321   -0.7391660009328814
   0.0012735541916028    0.0058911710298188    4.4198662739721808
Li Cu H
6 1 1
direct
   0.3044397522016953    0.4692494062663893    0.4986235212660370 Li
   0.1457424890137614    0.1917907448732113    0.9241774820437668 Li
   0.6018293998424025    0.0533627150414709    0.6163384750058173 Li
   0.4431423213247285    0.7758979652892400    0.0418999679850943 Li
   0.7201373706938888    0.3506332256793264    0.2008509338050340 Li
   0.0274342325437246    0.8945240675736266    0.3396655980260411 Li
   0.8737829927436048    0.6225815672031197    0.7702595068322253 Cu
   0.3737887894241081    0.1225848910437247    0.2702601148456402 H
