Li2 Cu11 H2
1.0
   4.1062997215213128    0.0248675712015243    1.3536368792350513
   2.3251103145348546    5.3797128576218372    1.8761493501659912
   0.0279498937972960   -0.0095757838638802    6.6060357577154356
Li Cu H
2 11 2
direct
   0.0382685272099076    0.7263896384383063    0.6018717387336312 Li
   0.8121771235448065    0.1973966050397338    0.4420215754958214 Li
   0.9618742690741591    0.8876575071628992    0.2129104858088493 Cu
   0.1117952780538271    0.5720417442171556    0.9891539049203881 Cu
   0.2575134883372019    0.2670921318117649    0.7572775001150138 Cu
   0.4974786587931289    0.8021244806796567    0.9097226372018860 Cu
   0.6467149739452445    0.4992263504217082    0.6806594014032559 Cu
   0.5750529086347531    0.6593386889075621    0.2913347946553483 Cu
   0.4297070572000706    0.9608541678069535    0.5179137885913020 Cu
   0.8862892945439649    0.0331362161834045    0.8314170185013494 Cu
   0.1905102112407020    0.4269984767436418    0.3667818178356052 Cu
   0.7294178774998488    0.3457226289172244    0.0616153200872549 Cu
   0.3447954376018015    0.1152777169458116    0.1402980858047364 Cu
   0.4228534341051173    0.4587815249757121    0.5246447159630068 H
   0.6497667994761508    1.0012182514324917    0.6776687687439997 H
