Cu2 H1
1.0
   2.5701828621906708   -0.0000000000000000   -0.0010589952061476
  -1.2850908982561582    2.2258434642977178    0.0018226990412947
   0.0017515465343182   -0.0024698088540713    4.2510059145692178
Cu H
2 1
direct
   0.9852285569165553    0.2818626542062760    0.6069796176043647 Cu
   0.3185618902498886    0.9485293208729420    0.0803389454140226 Cu
   0.6518952235832220    0.6151959875396094    0.3436592815091936 H
