Cu3 H1
1.0
   2.4704424016392914    0.0027654084641094   -0.4893920624277828
  -1.2863823713891802    2.1651366109771302   -0.0013222912804710
  -0.0178048109873241   -0.0066758554456931    6.3901623414915507
Cu H
3 1
direct
   0.4967008080482453    0.3729343953184447    0.1228711004903425 Cu
   0.9495427734547408    0.5993553780216923    0.8021340486000849 Cu
   0.4023721422333620    0.8257700624110029    0.4813781017680179 Cu
   0.9487586780416971    0.0989633303151702    0.3009579054805195 H
