Cu2 H1
1.0
   2.5417413533153570    0.0000000000000000   -0.0010472764206878
  -1.2708701497148704    2.2012123971560897    0.0018025291492133
   0.0017320983978481   -0.0024423855577398    4.2038052598668258
Cu H
2 1
direct
   0.9852285569165548    0.2818626542062761    0.6065899024425887 Cu
   0.3185618902498888    0.9485293208729424    0.0807286605757989 Cu
   0.6518952235832219    0.6151959875396092    0.3436592815091937 H
