Li1 Cu4 H1
1.0
   2.4749941166281046    0.0012516650545550   -0.3899175769370521
  -0.0622716396848449    2.4742638030312172   -0.3895818742113915
   0.1058765917857802    0.1074457532679503    8.7053172468110098
Li Cu H
1 4 1
direct
   0.3363894440986198    0.4505870839038225    0.1440790553867916 Li
   0.9373787473839992    0.0515763871892024    0.3455589854638728 Cu
   0.7353738739179793    0.8495715137231835    0.9425953663247461 Cu
   0.5368221287637875    0.6510197685689908    0.5447487223273745 Cu
   0.1359125196086782    0.2501101594138809    0.7433939096869927 Cu
   0.8363841553620892    0.9505817951672935    0.1440580895089395 H
