Li6 H2
1.0
   2.4993633528612782    0.0120170867618865   -0.5029268027451673
  -0.2197419166643581    4.2302805284805993   -0.9801349081126530
   0.0270324907634376   -0.5319619244962941    6.6061976243023484
Li H
6 2
direct
   0.1343836513394886    0.2099490788654063    0.4132830873782776 Li
   0.9673665653511792    0.7021358785757229    0.0783897709998860 Li
   0.4673674977843656    0.2021223176242880    0.0784030712883991 Li
   0.6343689943704848    0.7099372578512263    0.4132436934619338 Li
   0.8014582414476198    0.2174680213091278    0.7481346404905294 Li
   0.3014328887237682    0.7174592886591287    0.7481042847048777 Li
   0.8844200517328651    0.9598129935410106    0.9132528440276518 H
   0.3844002158332442    0.4597906110596689    0.9132512282265518 H
