Li1 Cu1
1.0
   2.4552764522919786   -0.0011457142653167   -0.0000000000000000
  -1.2257647927888029    2.1274126169128746   -0.0000000000000000
  -0.0000000000000000   -0.0000000000000000    3.9488258563714091
Li Cu
1 1
direct
   0.9486989800645419    0.3070113198652465    0.3215525737145556 Li
   0.2810092546299165    0.9747010452998723    0.8215525737145554 Cu
