Li2 Cu11 H2
1.0
   4.0527575534657858    0.0298482039361847    1.3405231093108130
   2.3040484025763517    5.3087453707627086    1.8510051172315594
   0.0343150153224655   -0.0136982347756028    6.5215449782908301
Li Cu H
2 11 2
direct
   0.0388205163363094    0.7261345944139944    0.6019368514276395 Li
   0.8107622541536866    0.1965199049754413    0.4418511683360408 Li
   0.9603437809688926    0.8876708698700972    0.2144725667357275 Cu
   0.1124147987809187    0.5734705956572789    0.9880079157278827 Cu
   0.2587498828430501    0.2679908647941094    0.7573005412076534 Cu
   0.4990961379143491    0.8026018100558071    0.9096660797512557 Cu
   0.6482517739037655    0.4998454954117265    0.6799451203402089 Cu
   0.5737451540045859    0.6582313722476171    0.2917364280706614 Cu
   0.4276497830369473    0.9605747805102096    0.5184323633758425 Cu
   0.8878740562491595    0.0337833789863166    0.8302794677503389 Cu
   0.1876784971588931    0.4261418404041841    0.3678567801413684 Cu
   0.7288066705828530    0.3454356725520334    0.0625119357624248 Cu
   0.3432635695707763    0.1158026468483046    0.1407427725203274 Cu
   0.4228470963512975    0.4590419810233849    0.5239754113850327 H
   0.6539113844715853    1.0000103369854507    0.6765761327610610 H
