Li2 Cu4 H4
1.0
   2.5301994248494784    0.0032764773281648    0.2555907875336100
   1.2463332846755062    2.2019687529825971    0.2554084373755309
   0.0050402260413012    0.0039828715765083   12.5370520159026491
Li Cu H
2 4 4
direct
   0.7460853499355531    0.0074320445812547    0.0994379996952600 Li
   0.4687536661834501    0.7301003608291535    0.9335291345093538 Li
   0.1919462401600351    0.4532929348057378    0.7655822793370497 Cu
   0.0233919795009496    0.2847386741466517    0.2675002716900029 Cu
   0.3044559550959003    0.5658026497416023    0.4281265464457849 Cu
   0.5791364721040202    0.8404831667497231    0.6053736305615155 Cu
   0.3838727623570523    0.6452194570027538    0.1853019741335504 H
   0.8309799849622386    0.0923266796079405    0.8481002728481223 H
   0.1072892382027078    0.3686359328484097    0.0167224303329412 H
   0.9415584670075514    0.2029051616532536    0.5178734587263847 H
