Li3 Cu1 H4
1.0
   3.2996096434798639   -0.0011308226803439   -1.5591986879936506
  -0.7404166457483283    3.2139176014348623   -1.5659885552244321
   0.0685478362388057    0.0941083214256762    4.4140515328901841
Li Cu H
3 1 4
direct
   0.4422663230770761    0.9049871309080655    0.3308401371313357 Li
   0.1922499868274474    0.1549382333846028    0.8307855873348843 Li
   0.9422134361027585    0.4049467443918400    0.3307548010140723 Li
   0.6894852333291837    0.6526957438775653    0.8307773995679119 Cu
   0.9403611977661483    0.9028081022901892    0.3239445780872146 H
   0.4472159561815137    0.4096424012395546    0.3376463174133877 H
   0.1969314662087430    0.6576396704874744    0.8307836315248640 H
   0.6954752254348804    0.1588222487766192    0.8307849484115231 H
