Li1 H1
1.0
   2.2297397882415391    0.0043424095731967    1.2771413455049823
   0.7415962202978721    2.1013019192945790    1.2796146631683414
   0.0068174614182720    0.0018073530630772    2.5695911448869291
Li H
1 1
direct
   0.2387664322973142    0.3734551083889634    0.0381813771603322 Li
   0.7387664322973150    0.8734551083889632    0.5381813771603314 H
