Li6 Cu1 H1
1.0
   4.2209113724662055   -0.0002474281547045   -0.6966570105226570
  -0.8267451762433805    4.1323794659553306   -0.7161440216648406
   0.0011580568186632    0.0056534222240258    4.2819855467322308
Li Cu H
6 1 1
direct
   0.3049958672605633    0.4752761453127270    0.4940969673982077 Li
   0.1502796181944570    0.1913249558730959    0.9182129916865015 Li
   0.5972927349149465    0.0538357806493648    0.6223070761397305 Li
   0.4425852716395894    0.7698723448813832    0.0464213759088452 Li
   0.7261663883001831    0.3460868244569130    0.2012465945578173 Li
   0.0214062152454873    0.8990672527253986    0.3392727950769805 Li
   0.8737817335081361    0.6225806119760774    0.7702591327688700 Cu
   0.3737895057325807    0.1225806646921956    0.2702586684307244 H
