Li2 Cu2 H4
1.0
   2.5749390036734212    0.0001204762342582   -0.0043386868278713
  -1.2889418258929177    4.4528971085706051   -0.7046053113266192
   0.0075385683239030   -0.3735106202015264    4.4295862364729564
Li Cu H
2 2 4
direct
   0.9341072192005089    0.4037549831843861    0.6336678949953490 Li
   0.7307868520317625   -0.0029078128388782    0.0119180167495030 Li
   0.1872549310605151    0.9100685587384461    0.4960835524301335 Cu
   0.4779618056828089    0.4915156431135103    0.1503198167358453 Cu
   0.3323793209740771    0.2001783378613148    0.8225785845778995 H
   0.5910871260719839    0.7177578398050201    0.6022940173920427 H
   0.0728540881211092    0.6813079788875557    0.0400783223390012 H
   0.3317993213510416    0.1991807817334778    0.3214947521946222 H
