Li3 Cu5 H1
1.0
   3.5083110890089699    0.0010194988096497    0.0000000000000000
  -0.0014154275715464    4.8707857213202672    0.1130129384089625
   0.0000028111258634   -0.0096736788174136    4.8720872211641177
Li Cu H
3 5 1
direct
   0.8218579891775525    0.4008318506945363    0.3395586334794323 Li
   0.8218579891775526    0.9074799687260453    0.8462067515109412 Li
   0.3218579891775525    0.6541559097102906    0.5928826924951871 Li
   0.3218579891775523    0.6541559097102908    0.0928826924951867 Cu
   0.8218579891775525    0.9030303882705673    0.3440082139349107 Cu
   0.3218579891775523    0.1541559097102911    0.5928826924951869 Cu
   0.3218579891775525    0.1541559097102910    0.0928826924951868 Cu
   0.8218579891775518    0.4052814311500152    0.8417571710554630 Cu
   0.8218579891775523    0.6541559097102908    0.5928826924951871 H
