Cu4 H1
1.0
   3.5560270172795247   -0.0000000000000000    0.0020303807137116
   0.0000001170505999    3.5560275910123806   -0.0002050034718459
  -0.0020303807103377    0.0002050035052619    3.5560270113703409
Cu H
4 1
direct
   0.8386724593886926    0.7274323101882824    0.8204190136196270 Cu
   0.8386724593886927    0.2274323101882823    0.3204190136196270 Cu
   0.3386724593886927    0.7274323101882822    0.3204190136196268 Cu
   0.3386724593886927    0.2274323101882822    0.8204190136196271 Cu
   0.8386724593886928    0.7274323101882822    0.3204190136196269 H
