Li1 Cu6 H6
1.0
   3.4000043112938729   -0.1196991589591771    0.0063382054874339
  -1.5674845671484325    3.8393285317825261   -0.2871729171470392
  -0.0245292115851374   -0.3854678170520179    5.3598262362031699
Li Cu H
1 6 6
direct
   0.8821225860379814    0.2185943642025597    0.7243107116221480 Li
   0.5971145413377997    0.6482344070097765    0.8631869823513817 Cu
   0.4480551118431907    0.3501021690348550    0.4423846462258743 Cu
   0.1706248911450785    0.7952900232540019    0.5789484692173705 Cu
   0.3127550166131516    0.0794926024763714    0.0115859098368042 Cu
   0.0322493074263508    0.5184950664244505    0.1549332220045443 Cu
   0.7434700736802314    0.9409436765206980    0.2989240582455014 Cu
   0.6731677017640613    0.8003110400712256    0.5816720885071286 H
   0.3812504600735850    0.2167266985230416    0.7286384035294488 H
   0.0917890948807620    0.6375716117655248    0.8573880210966597 H
   0.9524382664069787    0.3587337320305358    0.4494542601723240 H
   0.5298560720612989    0.5137377989910236    0.1567486228748872 H
   0.8168129027726132    0.0876509474300953    0.0051433987509256 H
