Li2 Cu6 H8
1.0
   3.3851284834728226   -0.0895602113708878    0.0008880408850700
   0.0896999358468588    3.3845847629552637    0.0000235315175803
  -0.0017873349402976    0.0000000000000002    6.8131529951243017
Li Cu H
2 6 8
direct
   0.3344106215230933    0.3920132758857664    0.4182927905073015 Li
   0.8343310620716118    0.8919926958668314    0.9182927905073015 Li
   0.3346700008651204    0.3923009174164804    0.9182927905073015 Cu
   0.8346556008884882    0.3923398749148406    0.1682850522541909 Cu
   0.8346556008884882    0.3923398749148406    0.6683005287604192 Cu
   0.8346475999455835    0.8923306002005922    0.4182927905073015 Cu
   0.3346872095463895    0.8922741732287205    0.6682842641528772 Cu
   0.3346872095463895    0.8922741732287205    0.1683013168617257 Cu
   0.8347093944753092    0.8924605066960044    0.6805696369461803 H
   0.3347270894408952    0.3924347758737781    0.1805692024921485 H
   0.8345501906713332    0.3924447712882356    0.4182927905073015 H
   0.8347093944753092    0.8924605066960044    0.1560159440684225 H
   0.8346839212230761    0.3923050216904573    0.9182927905073015 H
   0.3347270894408952    0.3924347758737781    0.6560163785224543 H
   0.3345204768948615    0.8923378621991120    0.9182927905073015 H
   0.3346948363343772    0.8922547024100547    0.4182927905073015 H
