Li8 Cu1 H3
1.0
   2.7438053346992692    0.0004654549447524   -0.5328070662905904
  -0.3513153442894634    5.7514652959385257   -1.7659710617344919
  -0.6111831529699564   -0.6541754107638416    4.1936900652264919
Li Cu H
8 1 3
direct
   0.4962672067357459    0.3777038865968980    0.3339740379758548 Li
   0.0450714556844743    0.0216576461935522    0.4327623413613453 Li
   0.8392477061139133    0.4024732354683497    0.0218501470137492 Li
   0.1598394616693385    0.3635529519427522    0.6628657832605565 Li
   0.7235019624931969    0.0610866078983024    0.7912227568278262 Li
   0.7519870824905486    0.7013597288656293    0.8506878551536878 Li
   0.1308867064417674    0.7229146985088226    0.6075363987409148 Li
   0.3880625098415794    0.0464680643407807    0.1195380923500066 Li
   0.4416977070195554    0.7122521254622146    0.2290104573780676 Cu
   0.9420065049339776    0.2121085834670993    0.2268927045975596 H
   0.2723944297464034    0.2064671440312544    0.8883400590787297 H
   0.6109480160483050    0.2179736364035057    0.5652334491126759 H
