Li1 H1
1.0
   1.9032131188934251   -0.0052268549640599   -1.0946222368594747
  -1.2649037270752903    1.7945509055790314   -0.0071376385872407
  -0.0029584954203810    0.0052268549640605    2.1955430455038063
Li H
1 1
direct
   0.4558388864576202    0.6124290369810694    0.5248461760006649 Li
   0.4558388864576202    0.1124290369810694    0.0248461760006649 H
