Cu2 H1
1.0
   2.3727405346989898    0.0000000000000003   -0.0009776428318166
  -1.1863697754432043    2.0548534072523137    0.0016826786768591
   0.0016160835290305   -0.0022787960985985    3.9222370092613610
Cu H
2 1
direct
   0.9852285569165531    0.2818626542062788    0.6062155320533198 Cu
   0.3185618902498888    0.9485293208729431    0.0811030309650669 Cu
   0.6518952235832245    0.6151959875396074    0.3436592815091970 H
