Li9 Cu1 H1
1.0
   2.8821054695396167   -0.0020955363975401   -0.7505366385961489
  -0.2634388746873348    3.8409436566015400   -1.0136969281994750
   0.0310381821067203   -0.3177840733871325    6.0362031584546036
Li Cu H
9 1 1
direct
   0.7770489383570268    0.4386992372383588    0.4250089833806828 Li
   0.5484803739543367    0.0607568983872878    0.9676306404632787 Li
   0.3822120021135339    0.6705667831785342    0.6317328151052541 Li
   0.9330296509063244    0.9965436462302963    0.7361345709276332 Li
   0.7198121013506641    0.8951375440891687    0.3134504574479124 Li
   0.9699060638924657    0.4941841586782365    0.8120444056902973 Li
   0.5541626208521561    0.5046019759361697    0.9816197766876159 Li
   0.1827744310941699    0.5324581426578364    0.2401416532723316 Li
   0.1333833414216763    0.0316004550017308    0.1391667154952040 Li
   0.3355824338158311    0.1357665080049216    0.5435708944232465 Cu
   0.0568007689467346    0.2810945743051192    0.9853571016496395 H
