Li6 H2
1.0
   2.6623880805932845    0.0871502321673418   -0.2532501583887229
  -0.1362813661059406    2.6245306690219916   -0.5728538070469880
   0.3512522847842103   -0.0074898232178561    5.6353139334985345
Li H
6 2
direct
   0.1906264353003349    0.0963578201563089    0.4310494174322932 Li
   0.8860891794477550    0.6010519704495525    0.0978519688849253 Li
   0.3755432303307916    0.0763382074488496    0.0660623948948771 Li
   0.6881340214238550    0.5549741159064704    0.3959417629148638 Li
   0.8504373837839813    0.4324854417007425    0.7612897403622025 Li
   0.3533365940596140    0.9096257574438038    0.7293077295212269 Li
   0.8659855710744813    0.0051110935326339    0.9140295964540684 H
   0.3650438553584665    0.5027305213033818    0.9105294525301830 H
