Li1 Cu1
1.0
   2.4319755519969686    0.0000000000000000   -0.0001053451136264
   0.0000000034772183    2.4319755529537304    0.0000802743449440
   0.0001051611955780   -0.0000801341971210    2.4277296578910010
Li Cu
1 1
direct
   0.5425601591288824    0.1355231395531433    0.2050071363302806 Li
   0.0425601591288824    0.6355231395531433    0.7050071363302806 Cu
