Li2 Cu2 H4
1.0
   3.0204464500248722   -0.0050343852001630   -1.2992155367036651
  -0.5590238754756865    2.9637014722854209   -1.3093619217903325
  -0.0414386329160092   -0.0358981464324175    4.0633303251994537
Li Cu H
2 2 4
direct
   0.2813816387309866    0.5641070595639536    0.5849425176599801 Li
   0.0311309479122788    0.8144246942250019    0.0848855233920767 Li
   0.7812694055814471    0.0642346572900948    0.5849022162646332 Cu
   0.5312431810618183    0.3142970964988535    0.0849258247874235 Cu
   0.7902961943251612    0.5731621297426047    0.6027284172394628 H
   0.5222163923181042    0.8053696240463507    0.0670996238125939 H
   0.2723631303675427    0.0552125319558866    0.5670950285591082 H
   0.0401494562757227    0.3233192218330688    0.1027330124929485 H
